48
Coordinates from ORCA-job 3_opt_3c E -1337.077041760044
  C       5.742063     -0.982600      0.940835
  O       4.973823      0.137039      0.510931
  C       3.620958      0.047284      0.768498
  O       3.048772     -0.895716     -0.113065
  C       1.652989     -1.036985      0.043549
  C       1.199033     -2.131266     -0.932564
  O       1.620660     -3.411290     -0.551279
  C       0.895669      0.278947     -0.229060
  O      -0.475892     -0.048842      0.014746
  C      -1.363467      0.813712      0.670090
  O      -2.174368      1.506361     -0.242220
  C      -2.974678      0.656949     -1.067923
  C      -3.832151      1.554949     -1.970045
  O      -3.127309      2.084330     -3.060610
  C      -3.872754     -0.262675     -0.222920
  O      -4.629784     -1.138610     -1.016117
  C      -3.032742     -1.036562      0.805237
  O      -3.845174     -1.770647      1.689090
  C      -2.219784     -0.036053      1.627007
  O      -1.358276     -0.649283      2.544610
  C       1.480711      1.423327      0.602600
  O       1.110275      2.697529      0.120331
  C       3.019868      1.437230      0.543365
  O       3.532499      2.282370      1.534814
  H       5.463647     -1.876888      0.382256
  H       5.600085     -1.152798      2.011452
  H       6.774821     -0.716670      0.735648
  H       3.431091     -0.264645      1.816868
  H       1.418284     -1.348256      1.074116
  H       1.570451     -1.874895     -1.931773
  H       0.109558     -2.155438     -0.939318
  H       2.587714     -3.435927     -0.553372
  H       1.002357      0.545550     -1.291325
  H      -0.863317      1.576915      1.269531
  H      -2.308897      0.040382     -1.689303
  H      -4.265152      2.349376     -1.352059
  H      -4.636170      0.950020     -2.393923
  H      -2.469302      2.715621     -2.740363
  H      -4.604881      0.348732      0.317736
  H      -4.043604     -1.659315     -1.585868
  H      -2.331793     -1.708722      0.284955
  H      -4.546858     -2.204830      1.179927
  H      -2.920247      0.636749      2.147257
  H      -1.862336     -1.328183      3.021132
  H       1.192206      1.294824      1.658374
  H       0.150291      2.791937      0.054858
  H       3.328684      1.769934     -0.457282
  H       3.232417      3.187023      1.354064
48
Coordinates from ORCA-job 3_opt_3c E -1337.081840520564
  C       5.728350     -1.001566      0.967068
  O       4.984340      0.137536      0.513946
  C       3.623729      0.063989      0.762274
  O       3.056152     -0.881391     -0.130276
  C       1.657459     -1.043116      0.039658
  C       1.227081     -2.148371     -0.921578
  O       1.729085     -3.420270     -0.549564
  C       0.900671      0.269697     -0.235142
  O      -0.475811     -0.055427      0.022083
  C      -1.368830      0.807159      0.679194
  O      -2.195403      1.498404     -0.233366
  C      -2.998324      0.651764     -1.071595
  C      -3.827698      1.571184     -1.962428
  O      -3.078063      2.159365     -3.013219
  C      -3.895187     -0.263619     -0.222892
  O      -4.661612     -1.152356     -1.017023
  C      -3.053259     -1.034041      0.798834
  O      -3.865192     -1.779130      1.692701
  C      -2.235471     -0.043662      1.622766
  O      -1.382114     -0.668711      2.560744
  C       1.487855      1.422478      0.580198
  O       1.104622      2.706974      0.095003
  C       3.023699      1.445234      0.509262
  O       3.548267      2.327988      1.481354
  H       5.444128     -1.903188      0.412590
  H       5.566685     -1.163619      2.041117
  H       6.777995     -0.768315      0.781277
  H       3.423784     -0.246418      1.810221
  H       1.434219     -1.354931      1.076228
  H       1.558257     -1.868002     -1.934399
  H       0.136792     -2.221555     -0.903602
  H       2.694010     -3.392531     -0.581659
  H       1.002463      0.529230     -1.302390
  H      -0.869580      1.573327      1.283252
  H      -2.337319      0.033901     -1.701670
  H      -4.294653      2.337549     -1.324209
  H      -4.612596      0.974388     -2.435579
  H      -2.440744      2.778672     -2.636109
  H      -4.623935      0.353439      0.323924
  H      -4.069197     -1.679045     -1.572925
  H      -2.356714     -1.704543      0.265059
  H      -4.549298     -2.228125      1.177510
  H      -2.935345      0.641561      2.131502
  H      -1.899685     -1.326125      3.044483
  H       1.213797      1.295677      1.642323
  H       0.145335      2.799010      0.049096
  H       3.317930      1.749003     -0.509588
  H       3.239314      3.220522      1.279031
48
Coordinates from ORCA-job 3_opt_3c E -1337.083812925029
  C       5.702062     -1.012777      0.987193
  O       4.987722      0.143698      0.515754
  C       3.620237      0.079884      0.749841
  O       3.058115     -0.860611     -0.161680
  C       1.658226     -1.048188      0.031413
  C       1.240237     -2.160823     -0.913357
  O       1.831968     -3.411317     -0.561327
  C       0.900652      0.258274     -0.240952
  O      -0.477443     -0.066416      0.029791
  C      -1.366260      0.798231      0.690976
  O      -2.205067      1.489335     -0.220096
  C      -3.003061      0.640985     -1.070860
  C      -3.797749      1.571013     -1.966023
  O      -2.984520      2.224503     -2.942111
  C      -3.907089     -0.257284     -0.219632
  O      -4.680662     -1.154793     -1.015498
  C      -3.072327     -1.025233      0.801441
  O      -3.894206     -1.760355      1.707952
  C      -2.243143     -0.048773      1.622407
  O      -1.399120     -0.693360      2.569011
  C       1.487552      1.414597      0.561832
  O       1.088185      2.701882      0.070836
  C       3.018237      1.450008      0.474440
  O       3.546187      2.365052      1.427710
  H       5.414714     -1.913014      0.430024
  H       5.514581     -1.170976      2.058510
  H       6.763191     -0.808655      0.827750
  H       3.408484     -0.238544      1.791588
  H       1.456723     -1.358754      1.073454
  H       1.511344     -1.863785     -1.940113
  H       0.156310     -2.293672     -0.854679
  H       2.790078     -3.317830     -0.636997
  H       0.993652      0.513119     -1.310638
  H      -0.862994      1.564973      1.292235
  H      -2.341038      0.016016     -1.694139
  H      -4.324548      2.301319     -1.330715
  H      -4.536824      0.979723     -2.515005
  H      -2.389609      2.829616     -2.481855
  H      -4.633518      0.368889      0.320703
  H      -4.076562     -1.693576     -1.546690
  H      -2.391240     -1.708915      0.263313
  H      -4.556887     -2.229627      1.183237
  H      -2.931330      0.648922      2.130090
  H      -1.939155     -1.321143      3.065871
  H       1.223508      1.293970      1.627654
  H       0.127392      2.784861      0.048908
  H       3.299439      1.734882     -0.554342
  H       3.215542      3.244667      1.206264
48
Coordinates from ORCA-job 3_opt_3c E -1337.084401487624
  C       5.682826     -1.023400      1.001265
  O       4.988482      0.141541      0.519923
  C       3.617052      0.086328      0.739058
  O       3.055774     -0.847922     -0.184947
  C       1.656749     -1.048026      0.028202
  C       1.236831     -2.167267     -0.904399
  O       1.886427     -3.398769     -0.576460
  C       0.898163      0.255924     -0.242436
  O      -0.480630     -0.069217      0.035307
  C      -1.366929      0.794485      0.698302
  O      -2.212515      1.485468     -0.211014
  C      -2.999430      0.632272     -1.070632
  C      -3.773405      1.562710     -1.979698
  O      -2.916511      2.278959     -2.874861
  C      -3.910588     -0.254595     -0.218900
  O      -4.686430     -1.156048     -1.015155
  C      -3.081418     -1.021264      0.805456
  O      -3.910827     -1.745640      1.718046
  C      -2.246589     -0.051803      1.625025
  O      -1.407161     -0.709383      2.570049
  C       1.489271      1.415659      0.550345
  O       1.085142      2.700844      0.049353
  C       3.018203      1.452633      0.450429
  O       3.550118      2.385198      1.388077
  H       5.394322     -1.919702      0.439351
  H       5.477233     -1.179783      2.069016
  H       6.748756     -0.833505      0.859330
  H       3.392797     -0.238120      1.774940
  H       1.474368     -1.353688      1.074410
  H       1.456458     -1.864654     -1.941164
  H       0.161577     -2.339735     -0.807510
  H       2.836121     -3.261283     -0.687924
  H       0.984223      0.505799     -1.313421
  H      -0.863369      1.562215      1.296372
  H      -2.329482      0.002734     -1.679746
  H      -4.366262      2.254366     -1.360589
  H      -4.453812      0.970599     -2.598840
  H      -2.371761      2.872698     -2.342287
  H      -4.637789      0.376477      0.312893
  H      -4.075188     -1.706273     -1.526588
  H      -2.409807     -1.715613      0.269915
  H      -4.549016     -2.241380      1.186489
  H      -2.927054      0.648806      2.138099
  H      -1.964179     -1.310725      3.081542
  H       1.229926      1.306535      1.617967
  H       0.123840      2.783136      0.045595
  H       3.293648      1.726239     -0.582095
  H       3.201838      3.256165      1.157397
48
Coordinates from ORCA-job 3_opt_3c E -1337.084610736862
  C       5.677755     -1.023742      1.006158
  O       4.987485      0.142308      0.524848
  C       3.615339      0.088001      0.734452
  O       3.055491     -0.842744     -0.196094
  C       1.657813     -1.048779      0.025621
  C       1.235295     -2.170056     -0.904688
  O       1.905032     -3.393521     -0.590688
  C       0.896793      0.254152     -0.243144
  O      -0.481691     -0.072721      0.034762
  C      -1.365263      0.790502      0.698397
  O      -2.212309      1.483601     -0.209271
  C      -2.995118      0.628296     -1.070567
  C      -3.759043      1.556976     -1.992197
  O      -2.884840      2.293752     -2.851935
  C      -3.913620     -0.247109     -0.216070
  O      -4.698067     -1.143933     -1.009461
  C      -3.088315     -1.018044      0.809136
  O      -3.922431     -1.731762      1.725414
  C      -2.244562     -0.054544      1.626715
  O      -1.405505     -0.722287      2.563631
  C       1.487612      1.415284      0.548454
  O       1.079974      2.697854      0.044888
  C       3.016792      1.453966      0.443383
  O       3.548527      2.391789      1.374798
  H       5.391709     -1.916740      0.438724
  H       5.465522     -1.183076      2.071689
  H       6.743963     -0.833034      0.870907
  H       3.383303     -0.241592      1.766581
  H       1.484469     -1.353021      1.073121
  H       1.432673     -1.865526     -1.944841
  H       0.164312     -2.356770     -0.791549
  H       2.851088     -3.237860     -0.711349
  H       0.980446      0.503481     -1.313964
  H      -0.860387      1.558886      1.293858
  H      -2.322381     -0.008226     -1.668185
  H      -4.381480      2.234623     -1.387532
  H      -4.412298      0.963994     -2.638614
  H      -2.354888      2.873556     -2.289856
  H      -4.635907      0.390834      0.312709
  H      -4.090640     -1.706227     -1.512514
  H      -2.424712     -1.720798      0.275431
  H      -4.542740     -2.250058      1.193745
  H      -2.917791      0.646383      2.148101
  H      -1.972352     -1.301617      3.090315
  H       1.230023      1.310193      1.616327
  H       0.118693      2.781918      0.056351
  H       3.290986      1.725631     -0.589285
  H       3.185238      3.257802      1.146777
48
Coordinates from ORCA-job 3_opt_3c E -1337.084758717413
  C       5.676440     -1.023897      1.005595
  O       4.985912      0.141822      0.527184
  C       3.614632      0.088312      0.731073
  O       3.054128     -0.840325     -0.202370
  C       1.657608     -1.047171      0.024439
  C       1.230384     -2.168194     -0.905824
  O       1.903410     -3.389820     -0.599266
  C       0.895447      0.256095     -0.242269
  O      -0.482836     -0.072838      0.034408
  C      -1.365825      0.787785      0.698673
  O      -2.213783      1.482842     -0.207185
  C      -2.991562      0.625893     -1.070424
  C      -3.748607      1.552096     -2.002941
  O      -2.865187      2.298180     -2.842415
  C      -3.916660     -0.242157     -0.215671
  O      -4.706750     -1.133181     -1.008248
  C      -3.094693     -1.017453      0.810509
  O      -3.932273     -1.722110      1.728984
  C      -2.243214     -0.058909      1.627902
  O      -1.402195     -0.735150      2.554790
  C       1.487773      1.418227      0.548671
  O       1.081317      2.698964      0.043088
  C       3.017640      1.455396      0.439449
  O       3.551153      2.395068      1.365601
  H       5.391774     -1.914247      0.433973
  H       5.462756     -1.186392      2.070048
  H       6.741792     -0.829441      0.871674
  H       3.376731     -0.244099      1.761012
  H       1.489373     -1.351002      1.072436
  H       1.418102     -1.863544     -1.947427
  H       0.160576     -2.356391     -0.785293
  H       2.849259     -3.227528     -0.714213
  H       0.978098      0.505188     -1.312865
  H      -0.862359      1.556614      1.294145
  H      -2.315414     -0.015486     -1.658043
  H      -4.389781      2.222225     -1.409792
  H      -4.385656      0.957226     -2.663254
  H      -2.331131      2.857219     -2.263164
  H      -4.635088      0.400666      0.311422
  H      -4.104002     -1.705653     -1.505505
  H      -2.436511     -1.726366      0.278776
  H      -4.529780     -2.269617      1.200495
  H      -2.911827      0.639546      2.157961
  H      -1.975440     -1.290100      3.100948
  H       1.232481      1.316800      1.617038
  H       0.121400      2.793005      0.076002
  H       3.291202      1.725175     -0.593582
  H       3.171178      3.256722      1.146940
48
Coordinates from ORCA-job 3_opt_3c E -1337.084878016614
  C       5.678365     -1.020853      1.003046
  O       4.984043      0.143164      0.527222
  C       3.614178      0.088114      0.728914
  O       3.053862     -0.841060     -0.204879
  C       1.657927     -1.047758      0.022189
  C       1.229494     -2.167500     -0.909873
  O       1.901506     -3.389108     -0.607214
  C       0.894305      0.255637     -0.242936
  O      -0.483743     -0.074596      0.031953
  C      -1.365660      0.784950      0.696493
  O      -2.213537      1.482276     -0.208025
  C      -2.990386      0.625396     -1.071331
  C      -3.741523      1.550993     -2.010045
  O      -2.853199      2.297238     -2.842156
  C      -3.921132     -0.236957     -0.216489
  O      -4.715748     -1.122429     -1.008782
  C      -3.102534     -1.015732      0.810974
  O      -3.942867     -1.710380      1.733293
  C      -2.242057     -0.061931      1.626898
  O      -1.398490     -0.744934      2.545259
  C       1.486123      1.417859      0.549369
  O       1.079265      2.698062      0.045886
  C       3.016387      1.455325      0.437057
  O       3.550910      2.396273      1.359412
  H       5.395551     -1.910517      0.429589
  H       5.465929     -1.185553      2.067364
  H       6.742533     -0.821346      0.867959
  H       3.373342     -0.245172      1.758162
  H       1.490516     -1.353016      1.069832
  H       1.415024     -1.861086     -1.951410
  H       0.159542     -2.354135     -0.787829
  H       2.848532     -3.223453     -0.707423
  H       0.977382      0.506034     -1.313079
  H      -0.862549      1.553630      1.292513
  H      -2.313664     -0.020289     -1.653287
  H      -4.389597      2.219866     -1.422564
  H      -4.373867      0.955474     -2.674252
  H      -2.298953      2.829008     -2.255852
  H      -4.635591      0.410536      0.309988
  H      -4.118008     -1.703421     -1.502064
  H      -2.449643     -1.730628      0.280870
  H      -4.516942     -2.289377      1.212943
  H      -2.906429      0.635508      2.163324
  H      -1.974744     -1.272481      3.114915
  H       1.233927      1.315937      1.618275
  H       0.122551      2.806626      0.111131
  H       3.288517      1.723083     -0.597037
  H       3.151144      3.252719      1.155184
48
Coordinates from ORCA-job 3_opt_3c E -1337.085011419040
  C       5.680232     -1.020062      0.998759
  O       4.982774      0.142595      0.523344
  C       3.614438      0.087569      0.726161
  O       3.052719     -0.843684     -0.205229
  C       1.656706     -1.046942      0.019994
  C       1.227126     -2.165118     -0.913440
  O       1.895663     -3.388086     -0.612555
  C       0.893242      0.257165     -0.244359
  O      -0.484754     -0.074057      0.028897
  C      -1.367472      0.783536      0.693448
  O      -2.215530      1.482072     -0.210243
  C      -2.991821      0.625306     -1.073755
  C      -3.737919      1.551037     -2.015463
  O      -2.846978      2.296638     -2.844156
  C      -3.926610     -0.235051     -0.220646
  O      -4.721551     -1.116318     -1.015367
  C      -3.111185     -1.015132      0.809230
  O      -3.953376     -1.699773      1.736690
  C      -2.242683     -0.064944      1.623371
  O      -1.395000     -0.752797      2.534089
  C       1.486345      1.418668      0.549105
  O       1.081416      2.699939      0.048839
  C       3.016522      1.454625      0.432638
  O       3.554413      2.397078      1.350228
  H       5.397345     -1.910652      0.426635
  H       5.470216     -1.184044      2.063771
  H       6.743613     -0.818080      0.860823
  H       3.372660     -0.243606      1.756189
  H       1.487379     -1.353549      1.067168
  H       1.413769     -1.856460     -1.954445
  H       0.156330     -2.347873     -0.791674
  H       2.844439     -3.220588     -0.690834
  H       0.977649      0.508946     -1.314143
  H      -0.866251      1.551574      1.291747
  H      -2.314501     -0.022502     -1.652953
  H      -4.388924      2.219431     -1.429698
  H      -4.369055      0.955100     -2.680648
  H      -2.260943      2.790186     -2.254892
  H      -4.639224      0.415130      0.305269
  H      -4.126416     -1.703429     -1.504238
  H      -2.462370     -1.735161      0.280972
  H      -4.494851     -2.320509      1.230679
  H      -2.904437      0.631017      2.164830
  H      -1.970117     -1.245398      3.134934
  H       1.238546      1.315307      1.618923
  H       0.134172      2.836922      0.171307
  H       3.285810      1.717991     -0.603849
  H       3.128438      3.245978      1.168034
48
Coordinates from ORCA-job 3_opt_3c E -1337.085138436322
  C       5.682658     -1.019818      0.991068
  O       4.982759      0.141450      0.513488
  C       3.615428      0.086777      0.722333
  O       3.050942     -0.848197     -0.203638
  C       1.654388     -1.046842      0.019677
  C       1.224555     -2.165194     -0.912987
  O       1.891181     -3.389027     -0.610972
  C       0.891997      0.257816     -0.245906
  O      -0.486065     -0.072764      0.025883
  C      -1.370170      0.784586      0.689288
  O      -2.217307      1.482904     -0.215277
  C      -2.994469      0.626133     -1.078180
  C      -3.738285      1.552684     -2.019140
  O      -2.847442      2.297846     -2.848685
  C      -3.930504     -0.235664     -0.227385
  O      -4.722104     -1.115225     -1.026420
  C      -3.117370     -1.014471      0.805691
  O      -3.960490     -1.692778      1.737364
  C      -2.245295     -0.064739      1.617941
  O      -1.394241     -0.752929      2.526194
  C       1.486582      1.417125      0.549712
  O       1.080221      2.700396      0.055961
  C       3.015950      1.452723      0.427115
  O       3.557957      2.397256      1.340074
  H       5.397901     -1.913186      0.423886
  H       5.476344     -1.179734      2.057599
  H       6.745734     -0.818498      0.848653
  H       3.377377     -0.240026      1.754783
  H       1.482001     -1.353033      1.066872
  H       1.413435     -1.855384     -1.953651
  H       0.153189     -2.345473     -0.791733
  H       2.840970     -3.219740     -0.670283
  H       0.978580      0.511349     -1.315265
  H      -0.870115      1.551773      1.289649
  H      -2.317246     -0.021598     -1.658308
  H      -4.387690      2.221446     -1.431084
  H      -4.370961      0.956632     -2.683030
  H      -2.232257      2.757618     -2.261500
  H      -4.643875      0.414756      0.297808
  H      -4.126050     -1.704380     -1.511406
  H      -2.469841     -1.737113      0.279313
  H      -4.468953     -2.352139      1.247257
  H      -2.906804      0.630852      2.160178
  H      -1.964728     -1.214230      3.155040
  H       1.244133      1.309229      1.620351
  H       0.152233      2.871777      0.256173
  H       3.280102      1.711768     -0.612365
  H       3.105632      3.237280      1.181355
48
Coordinates from ORCA-job 3_opt_3c E -1337.085281563871
  C       5.684806     -1.022974      0.976661
  O       4.983966      0.137234      0.494762
  C       3.617369      0.085186      0.715868
  O       3.046478     -0.854597     -0.200521
  C       1.648987     -1.045094      0.023085
  C       1.216887     -2.166028     -0.904807
  O       1.882585     -3.390339     -0.598689
  C       0.889882      0.260618     -0.246534
  O      -0.488386     -0.067840      0.023478
  C      -1.376312      0.789484      0.683968
  O      -2.221363      1.485042     -0.223778
  C      -2.998156      0.626709     -1.085952
  C      -3.743284      1.553615     -2.023521
  O      -2.855122      2.302070     -2.854604
  C      -3.932287     -0.241434     -0.239185
  O      -4.714517     -1.122398     -1.045800
  C      -3.120624     -1.015498      0.798821
  O      -3.964401     -1.691544      1.732576
  C      -2.251643     -0.061607      1.609920
  O      -1.397482     -0.744653      2.520725
  C       1.488650      1.415815      0.551980
  O       1.079038      2.702247      0.067393
  C       3.016468      1.449679      0.418900
  O       3.565634      2.397169      1.325216
  H       5.394882     -1.920587      0.418425
  H       5.484425     -1.174934      2.045676
  H       6.747980     -0.826392      0.826929
  H       3.388391     -0.234193      1.752655
  H       1.473563     -1.347198      1.071416
  H       1.407315     -1.857897     -1.946076
  H       0.145317     -2.344281     -0.782136
  H       2.832821     -3.219070     -0.642243
  H       0.979871      0.515521     -1.315449
  H      -0.878393      1.555970      1.286852
  H      -2.319826     -0.017691     -1.669478
  H      -4.390168      2.221138     -1.430568
  H      -4.376571      0.956776     -2.686333
  H      -2.213512      2.730258     -2.271608
  H      -4.650782      0.405396      0.284224
  H      -4.112488     -1.709435     -1.525670
  H      -2.470254     -1.737796      0.275593
  H      -4.428559     -2.395057      1.261396
  H      -2.916522      0.633202      2.149027
  H      -1.960597     -1.172434      3.178529
  H       1.253065      1.301574      1.623383
  H       0.198184      2.927618      0.388263
  H       3.272232      1.703633     -0.624555
  H       3.082447      3.225010      1.195272
48
Coordinates from ORCA-job 3_opt_3c E -1337.085413681516
  C       5.689636     -1.017660      0.964966
  O       4.984931      0.139627      0.480267
  C       3.618321      0.084590      0.711832
  O       3.045872     -0.859941     -0.197640
  C       1.647987     -1.050157      0.026758
  C       1.218268     -2.175097     -0.897054
  O       1.887725     -3.397422     -0.585769
  C       0.888514      0.254259     -0.246694
  O      -0.489724     -0.071346      0.020709
  C      -1.376679      0.791439      0.678069
  O      -2.217045      1.486108     -0.232930
  C      -2.998824      0.628690     -1.091803
  C      -3.746698      1.557796     -2.024439
  O      -2.861230      2.303218     -2.863068
  C      -3.931159     -0.241354     -0.245060
  O      -4.709677     -1.123578     -1.055214
  C      -3.120714     -1.013036      0.796018
  O      -3.966265     -1.689271      1.729529
  C      -2.255099     -0.054938      1.604999
  O      -1.402272     -0.731467      2.523267
  C       1.484770      1.406439      0.556322
  O       1.059936      2.692720      0.080886
  C       3.011249      1.446233      0.415943
  O       3.561032      2.396956      1.319689
  H       5.398757     -1.919058      0.413092
  H       5.494243     -1.164744      2.035674
  H       6.752391     -0.822003      0.810127
  H       3.399851     -0.230923      1.751858
  H       1.471671     -1.348493      1.076170
  H       1.409812     -1.869525     -1.938924
  H       0.147346     -2.356688     -0.774395
  H       2.837378     -3.223593     -0.631139
  H       0.981695      0.511063     -1.314943
  H      -0.875005      1.556964      1.278952
  H      -2.323749     -0.015017     -1.680336
  H      -4.384429      2.229061     -1.425996
  H      -4.386105      0.962544     -2.682767
  H      -2.215644      2.732609     -2.285512
  H      -4.652255      0.403886      0.277153
  H      -4.103771     -1.707552     -1.533933
  H      -2.468583     -1.735077      0.274897
  H      -4.418035     -2.403781      1.263224
  H      -2.921074      0.643667      2.137869
  H      -1.963146     -1.151553      3.187541
  H       1.252638      1.283460      1.627215
  H       0.218086      2.942748      0.478947
  H       3.260170      1.700682     -0.629193
  H       3.064895      3.218508      1.198324
48
Coordinates from ORCA-job 3_opt_3c E -1337.085751212696
  C       5.692248     -1.020302      0.948841
  O       4.987949      0.134890      0.458545
  C       3.620623      0.082587      0.705498
  O       3.041256     -0.866147     -0.192615
  C       1.642558     -1.050676      0.038040
  C       1.209552     -2.182931     -0.874992
  O       1.882950     -3.402862     -0.554525
  C       0.886499      0.253831     -0.242818
  O      -0.492151     -0.068379      0.020072
  C      -1.383970      0.797480      0.671825
  O      -2.218381      1.487733     -0.244303
  C      -3.001029      0.628664     -1.100900
  C      -3.759014      1.558172     -2.025674
  O      -2.880255      2.308557     -2.869723
  C      -3.926351     -0.250810     -0.256674
  O      -4.693219     -1.138452     -1.074677
  C      -3.114843     -1.016917      0.788028
  O      -3.961794     -1.701207      1.715972
  C      -2.263972     -0.048183      1.597492
  O      -1.412212     -0.710849      2.527881
  C       1.486704      1.402712      0.562012
  O       1.045923      2.687749      0.089284
  C       3.011421      1.442167      0.408900
  O       3.567678      2.398436      1.304494
  H       5.396100     -1.926080      0.406907
  H       5.503264     -1.158106      2.021902
  H       6.755186     -0.831198      0.786724
  H       3.417125     -0.224939      1.750465
  H       1.468048     -1.338829      1.090500
  H       1.399141     -1.886594     -1.919598
  H       0.139885     -2.367560     -0.748021
  H       2.831543     -3.228466     -0.617181
  H       0.984492      0.509057     -1.310983
  H      -0.882469      1.562275      1.271335
  H      -2.326329     -0.008863     -1.696724
  H      -4.390243      2.228559     -1.420381
  H      -4.399807      0.963314     -2.682579
  H      -2.249933      2.761310     -2.293555
  H      -4.656715      0.385601      0.263523
  H      -4.076511     -1.712343     -1.551969
  H      -2.454868     -1.733707      0.270402
  H      -4.393414     -2.427480      1.248639
  H      -2.936124      0.651239      2.121450
  H      -1.971534     -1.131253      3.193134
  H       1.257115      1.276214      1.632125
  H       0.306024      3.003692      0.620429
  H       3.250884      1.694602     -0.638845
  H       3.060959      3.214288      1.185804
48
Coordinates from ORCA-job 3_opt_3c E -1337.086098068289
  C       5.697550     -1.025892      0.918441
  O       4.994611      0.126270      0.421999
  C       3.626053      0.079920      0.695583
  O       3.032745     -0.872931     -0.183711
  C       1.633163     -1.047920      0.063871
  C       1.190724     -2.193510     -0.827739
  O       1.871928     -3.408536     -0.491665
  C       0.883013      0.257174     -0.229236
  O      -0.496390     -0.060847      0.022781
  C      -1.399750      0.807444      0.664444
  O      -2.222269      1.489523     -0.261331
  C      -3.003120      0.626638     -1.115444
  C      -3.779794      1.554619     -2.029539
  O      -2.911069      2.315993     -2.878482
  C      -3.916394     -0.268194     -0.275511
  O      -4.664229     -1.165340     -1.106238
  C      -3.103097     -1.026523      0.774099
  O      -3.953182     -1.728586      1.687983
  C      -2.282111     -0.039527      1.586752
  O      -1.434618     -0.678231      2.538288
  C       1.492719      1.398451      0.580614
  O       1.018807      2.681863      0.118017
  C       3.014096      1.436797      0.400255
  O       3.584347      2.403107      1.278910
  H       5.391629     -1.937098      0.391368
  H       5.520872     -1.150179      1.995018
  H       6.760315     -0.847900      0.743272
  H       3.449596     -0.216057      1.747863
  H       1.467154     -1.316460      1.122301
  H       1.372582     -1.917187     -1.878268
  H       0.124030     -2.384045     -0.689702
  H       2.816656     -3.236942     -0.603231
  H       0.990193      0.509735     -1.296973
  H      -0.900302      1.572101      1.260138
  H      -2.327426     -0.000075     -1.721100
  H      -4.404858      2.221744     -1.416870
  H      -4.417647      0.959991     -2.688354
  H      -2.338448      2.837401     -2.301050
  H      -4.663239      0.351406      0.240865
  H      -4.028954     -1.720084     -1.582339
  H      -2.428541     -1.732798      0.262729
  H      -4.365682     -2.456522      1.205312
  H      -2.965472      0.659401      2.096593
  H      -1.995668     -1.119743      3.188540
  H       1.275999      1.265271      1.650436
  H       0.485242      3.093826      0.807309
  H       3.234746      1.687089     -0.651471
  H       3.073480      3.215358      1.147962
48
Coordinates from ORCA-job 3_opt_3c E -1337.086069318327
  C       5.699385     -1.020055      0.932723
  O       4.995698      0.131641      0.440894
  C       3.625832      0.081058      0.700748
  O       3.039737     -0.867949     -0.187518
  C       1.640847     -1.051471      0.059909
  C       1.201615     -2.195848     -0.835565
  O       1.882662     -3.410038     -0.500696
  C       0.886109      0.252268     -0.230926
  O      -0.492482     -0.068233      0.021604
  C      -1.391425      0.802379      0.665209
  O      -2.214433      1.486530     -0.259186
  C      -2.998756      0.625194     -1.110708
  C      -3.773157      1.551853     -2.030903
  O      -2.900478      2.304033     -2.881955
  C      -3.915926     -0.258114     -0.263061
  O      -4.677848     -1.153644     -1.082655
  C      -3.102022     -1.021995      0.781974
  O      -3.952036     -1.720449      1.696867
  C      -2.273486     -0.040510      1.592826
  O      -1.428228     -0.685986      2.539487
  C       1.490650      1.395605      0.578981
  O       1.007407      2.672937      0.111538
  C       3.014201      1.438673      0.405840
  O       3.578832      2.404123      1.288394
  H       5.400286     -1.927522      0.395913
  H       5.517128     -1.153070      2.007118
  H       6.761749     -0.834547      0.764601
  H       3.439974     -0.222042      1.749581
  H       1.478522     -1.322964      1.117574
  H       1.383177     -1.920449     -1.885900
  H       0.134919     -2.387993     -0.700370
  H       2.825619     -3.243650     -0.633520
  H       0.991806      0.504052     -1.298884
  H      -0.886783      1.569172      1.254788
  H      -2.326358     -0.008733     -1.711334
  H      -4.398778      2.224056     -1.425237
  H      -4.412867      0.958211     -2.688492
  H      -2.367757      2.868968     -2.307493
  H      -4.655198      0.368170      0.255026
  H      -4.051406     -1.714027     -1.564069
  H      -2.433651     -1.732693      0.268550
  H      -4.413045     -2.405477      1.194659
  H      -2.950371      0.660785      2.108047
  H      -1.995759     -1.163468      3.158836
  H       1.271057      1.265630      1.648824
  H       0.399980      3.042071      0.763643
  H       3.241734      1.692759     -0.642781
  H       3.103313      3.230756      1.120585
48
Coordinates from ORCA-job 3_opt_3c E -1337.085455730328
  C       5.696605     -0.970528      0.991381
  O       4.968532      0.168861      0.500382
  C       3.601988      0.084434      0.719020
  O       3.059213     -0.873162     -0.194211
  C       1.662780     -1.090356      0.010447
  C       1.262867     -2.221736     -0.918475
  O       1.940011     -3.436427     -0.595071
  C       0.886125      0.202842     -0.269462
  O      -0.488678     -0.119335     -0.000949
  C      -1.350448      0.775633      0.652774
  O      -2.184204      1.476919     -0.258776
  C      -3.002414      0.633935     -1.097079
  C      -3.756487      1.574367     -2.013389
  O      -2.884906      2.279449     -2.900523
  C      -3.933578     -0.219695     -0.230971
  O      -4.732510     -1.100627     -1.021569
  C      -3.120248     -0.994835      0.804797
  O      -3.961700     -1.658676      1.749727
  C      -2.236224     -0.040754      1.598702
  O      -1.388080     -0.714021      2.523888
  C       1.445281      1.360317      0.538046
  O       0.959380      2.610362      0.036451
  C       2.973288      1.436766      0.419025
  O       3.494053      2.392749      1.335934
  H       5.434566     -1.878741      0.435788
  H       5.494831     -1.124115      2.060295
  H       6.755555     -0.747021      0.847145
  H       3.382346     -0.233977      1.758700
  H       1.480550     -1.391028      1.058191
  H       1.469366     -1.914597     -1.957167
  H       0.191613     -2.414165     -0.814371
  H       2.888525     -3.268323     -0.669743
  H       0.985415      0.459865     -1.337365
  H      -0.816820      1.538313      1.239212
  H      -2.354081     -0.022303     -1.701891
  H      -4.346873      2.273031     -1.397907
  H      -4.443115      0.990812     -2.634217
  H      -2.273241      2.794795     -2.357852
  H      -4.640751      0.436532      0.296913
  H      -4.141209     -1.689055     -1.512823
  H      -2.479844     -1.725625      0.280234
  H      -4.468303     -2.331809      1.278250
  H      -2.889687      0.676819      2.122457
  H      -1.953805     -1.171551      3.158436
  H       1.153605      1.226756      1.595885
  H       0.398582      3.033221      0.695946
  H       3.233647      1.700604     -0.621215
  H       3.028470      3.225073      1.180488
48
Coordinates from ORCA-job 3_opt_3c E -1337.086461452242
  C       5.698047     -1.006932      0.946378
  O       4.987816      0.141786      0.453197
  C       3.618946      0.083002      0.705100
  O       3.043464     -0.870606     -0.187358
  C       1.644625     -1.061970      0.045931
  C       1.217169     -2.202202     -0.859633
  O       1.893831     -3.418160     -0.525913
  C       0.884224      0.238461     -0.242615
  O      -0.494026     -0.080755      0.016624
  C      -1.384180      0.796766      0.663063
  O      -2.211242      1.483931     -0.258109
  C      -3.002963      0.626956     -1.107386
  C      -3.772336      1.557668     -2.024373
  O      -2.902209      2.294544     -2.890670
  C      -3.922903     -0.252911     -0.258097
  O      -4.688609     -1.146467     -1.073649
  C      -3.109241     -1.016736      0.786625
  O      -3.956336     -1.707307      1.710215
  C      -2.267629     -0.040504      1.593514
  O      -1.421129     -0.691540      2.536545
  C       1.477181      1.386158      0.564777
  O       0.984692      2.651266      0.083294
  C       3.001751      1.438516      0.407523
  O       3.555037      2.400985      1.300253
  H       5.407467     -1.916028      0.407166
  H       5.511313     -1.143089      2.019915
  H       6.759943     -0.813096      0.783367
  H       3.425521     -0.221583      1.752637
  H       1.473638     -1.342208      1.100594
  H       1.409926     -1.916819     -1.906018
  H       0.148196     -2.391879     -0.736002
  H       2.839838     -3.252484     -0.634010
  H       0.987520      0.490980     -1.310988
  H      -0.873889      1.562148      1.253050
  H      -2.335585     -0.010407     -1.711066
  H      -4.383750      2.239026     -1.412881
  H      -4.429442      0.966064     -2.667471
  H      -2.333952      2.837123     -2.328670
  H      -4.656831      0.379236      0.261610
  H      -4.067818     -1.711603     -1.556439
  H      -2.445900     -1.731239      0.270716
  H      -4.421334     -2.398827      1.221559
  H      -2.941163      0.664271      2.108731
  H      -1.986065     -1.159153      3.165075
  H       1.231418      1.253303      1.629934
  H       0.489938      3.089854      0.785199
  H       3.237701      1.693885     -0.639504
  H       3.079317      3.228568      1.141751
48
Coordinates from ORCA-job 3_opt_3c E -1337.086570763697
  C       5.698016     -1.006070      0.941284
  O       4.987736      0.143220      0.449600
  C       3.619143      0.084588      0.703960
  O       3.042304     -0.869427     -0.187620
  C       1.643835     -1.061855      0.048527
  C       1.215342     -2.203164     -0.854980
  O       1.893035     -3.418624     -0.520943
  C       0.883373      0.237861     -0.240754
  O      -0.495160     -0.080807      0.018383
  C      -1.386079      0.797049      0.664145
  O      -2.212717      1.483405     -0.257988
  C      -3.002297      0.625501     -1.108219
  C      -3.770873      1.555294     -2.026864
  O      -2.899169      2.293280     -2.890731
  C      -3.922689     -0.254632     -0.259844
  O      -4.686606     -1.149892     -1.075630
  C      -3.109754     -1.017179      0.785864
  O      -3.957472     -1.708541      1.708242
  C      -2.270613     -0.040126      1.593478
  O      -1.426525     -0.690635      2.539078
  C       1.476508      1.384857      0.567341
  O       0.970919      2.646145      0.087575
  C       3.000124      1.439493      0.406979
  O       3.554371      2.403179      1.297978
  H       5.406337     -1.914734      0.401990
  H       5.512491     -1.142675      2.014943
  H       6.759837     -0.812864      0.777174
  H       3.427644     -0.220312      1.751639
  H       1.474749     -1.340780      1.103788
  H       1.406035     -1.919230     -1.902051
  H       0.146653     -2.393287     -0.729466
  H       2.838479     -3.253316     -0.634403
  H       0.986761      0.489940     -1.309245
  H      -0.876615      1.563075      1.252478
  H      -2.333553     -0.011685     -1.710496
  H      -4.384425      2.236055     -1.417052
  H      -4.425684      0.963369     -2.671941
  H      -2.338862      2.842376     -2.327183
  H      -4.658078      0.377008      0.258341
  H      -4.064128     -1.714196     -1.557267
  H      -2.445329     -1.731338      0.270951
  H      -4.424475     -2.396849      1.216667
  H      -2.945414      0.664739      2.106971
  H      -1.993565     -1.163439      3.161954
  H       1.233495      1.248182      1.632156
  H       0.534599      3.109121      0.812277
  H       3.233203      1.694772     -0.640561
  H       3.085083      3.233145      1.132964
48
Coordinates from ORCA-job 3_opt_3c E -1337.086769276433
  C       5.699596     -1.013400      0.906216
  O       4.988983      0.143457      0.430101
  C       3.627436      0.093514      0.696346
  O       3.032915     -0.859378     -0.191616
  C       1.638787     -1.046303      0.065185
  C       1.188255     -2.188418     -0.825449
  O       1.857482     -3.408275     -0.499843
  C       0.883568      0.254797     -0.222829
  O      -0.498608     -0.063923      0.039429
  C      -1.399804      0.799749      0.684398
  O      -2.233447      1.482537     -0.240824
  C      -2.995712      0.616685     -1.107769
  C      -3.748274      1.536389     -2.046222
  O      -2.864438      2.287814     -2.882505
  C      -3.924922     -0.267431     -0.272674
  O      -4.677899     -1.169307     -1.088103
  C      -3.116677     -1.024052      0.777631
  O      -3.964077     -1.722576      1.693422
  C      -2.286794     -0.049510      1.599094
  O      -1.453307     -0.707375      2.549512
  C       1.489540      1.401578      0.579979
  O       0.973870      2.660970      0.112721
  C       3.008278      1.451245      0.403119
  O       3.575591      2.412061      1.286087
  H       5.395549     -1.916756      0.365014
  H       5.524987     -1.154845      1.981151
  H       6.759884     -0.822851      0.730083
  H       3.435729     -0.214680      1.743273
  H       1.482942     -1.320814      1.124039
  H       1.361571     -1.907968     -1.876982
  H       0.118777     -2.362872     -0.680664
  H       2.803939     -3.255278     -0.620466
  H       0.984124      0.501797     -1.292818
  H      -0.910699      1.572544      1.275936
  H      -2.308241     -0.017841     -1.691825
  H      -4.392939      2.204232     -1.453098
  H      -4.380242      0.935669     -2.706813
  H      -2.312595      2.828401     -2.302467
  H      -4.665599      0.365039      0.237507
  H      -4.052664     -1.735707     -1.563356
  H      -2.442923     -1.731935      0.264653
  H      -4.446943     -2.393036      1.192014
  H      -2.975001      0.646228      2.107673
  H      -2.030026     -1.202974      3.145333
  H       1.273034      1.254662      1.648467
  H       0.602559      3.149746      0.856730
  H       3.229174      1.699899     -0.648769
  H       3.145253      3.258484      1.103468
48
Coordinates from ORCA-job 3_opt_3c E -1337.086966975438
  C       5.700644     -1.005797      0.917279
  O       4.987730      0.149181      0.441810
  C       3.624467      0.093027      0.700705
  O       3.037829     -0.858142     -0.193444
  C       1.642728     -1.051354      0.056170
  C       1.202940     -2.193417     -0.840985
  O       1.878234     -3.409687     -0.515077
  C       0.882140      0.247960     -0.231113
  O      -0.497807     -0.073126      0.029761
  C      -1.394152      0.794523      0.675278
  O      -2.226747      1.479315     -0.249054
  C      -2.999334      0.615297     -1.108238
  C      -3.752647      1.535995     -2.047456
  O      -2.868353      2.275550     -2.893139
  C      -3.930004     -0.258305     -0.263793
  O      -4.695569     -1.156162     -1.072376
  C      -3.121090     -1.019183      0.784053
  O      -3.968838     -1.708753      1.705984
  C      -2.280322     -0.047862      1.597536
  O      -1.444912     -0.709407      2.542348
  C       1.480207      1.392539      0.579769
  O       0.950128      2.647410      0.115370
  C       3.001798      1.449082      0.409535
  O       3.561912      2.408584      1.298364
  H       5.403287     -1.908016      0.370802
  H       5.521276     -1.151957      1.990647
  H       6.760807     -0.809775      0.747193
  H       3.429325     -0.219755      1.745607
  H       1.483423     -1.329902      1.113193
  H       1.379669     -1.910181     -1.890963
  H       0.134378     -2.376082     -0.702219
  H       2.824032     -3.249310     -0.632210
  H       0.982662      0.499001     -1.300086
  H      -0.896238      1.568630      1.259538
  H      -2.319628     -0.026747     -1.692635
  H      -4.388782      2.212350     -1.455180
  H      -4.392028      0.937434     -2.702293
  H      -2.311268      2.816043     -2.318091
  H      -4.663067      0.380840      0.248472
  H      -4.077312     -1.728298     -1.550084
  H      -2.456175     -1.734115      0.269626
  H      -4.461865     -2.373277      1.206598
  H      -2.959198      0.652907      2.111709
  H      -2.021999     -1.204523      3.138614
  H       1.258255      1.241268      1.646723
  H       0.634006      3.156152      0.871580
  H       3.228114      1.703759     -0.639567
  H       3.137335      3.256279      1.107225
48
Coordinates from ORCA-job 3_opt_3c E -1337.087102958097
  C       5.703006     -0.999158      0.920696
  O       4.985810      0.154363      0.449365
  C       3.622667      0.092936      0.703543
  O       3.040419     -0.855987     -0.195665
  C       1.645015     -1.051927      0.049188
  C       1.211468     -2.193777     -0.852399
  O       1.888897     -3.407835     -0.525991
  C       0.879796      0.246476     -0.236725
  O      -0.498012     -0.078510      0.022661
  C      -1.391380      0.789674      0.669018
  O      -2.224100      1.475723     -0.255586
  C      -3.002481      0.611901     -1.109124
  C      -3.753192      1.531260     -2.052857
  O      -2.866603      2.261089     -2.903305
  C      -3.936473     -0.251532     -0.257578
  O      -4.713391     -1.145592     -1.059023
  C      -3.127320     -1.015923      0.788579
  O      -3.974640     -1.697960      1.716040
  C      -2.276510     -0.048183      1.596489
  O      -1.439322     -0.714008      2.535709
  C       1.472623      1.386510      0.583187
  O       0.933218      2.639700      0.128619
  C       2.997225      1.448390      0.416275
  O       3.552843      2.404996      1.310661
  H       5.410416     -1.899706      0.369038
  H       5.522593     -1.150979      1.993054
  H       6.762213     -0.796520      0.752863
  H       3.424607     -0.225005      1.746605
  H       1.483509     -1.333658      1.104863
  H       1.390788     -1.908734     -1.901414
  H       0.143065     -2.379782     -0.717706
  H       2.835013     -3.242893     -0.634538
  H       0.980689      0.502530     -1.304320
  H      -0.888234      1.567063      1.246477
  H      -2.327235     -0.037375     -1.690449
  H      -4.386466      2.213612     -1.464213
  H      -4.396002      0.932687     -2.704168
  H      -2.297852      2.791713     -2.330158
  H      -4.661977      0.394848      0.256022
  H      -4.103061     -1.724447     -1.538845
  H      -2.469325     -1.736437      0.272896
  H      -4.480448     -2.354502      1.219068
  H      -2.948557      0.655691      2.115374
  H      -2.016970     -1.211056      3.129974
  H       1.249987      1.228619      1.649682
  H       0.672375      3.165826      0.894495
  H       3.227501      1.708360     -0.630618
  H       3.143800      3.257514      1.107726
48
Coordinates from ORCA-job 3_opt_3c E -1337.087218880715
  C       5.705293     -0.995086      0.915892
  O       4.984156      0.158085      0.450272
  C       3.622233      0.094090      0.704401
  O       3.039757     -0.852957     -0.196970
  C       1.644575     -1.048411      0.047133
  C       1.211927     -2.190525     -0.855087
  O       1.888662     -3.403917     -0.527741
  C       0.876782      0.249793     -0.237699
  O      -0.499811     -0.078918      0.020596
  C      -1.393672      0.787144      0.667725
  O      -2.227243      1.472804     -0.258553
  C      -3.005125      0.607313     -1.110321
  C      -3.751889      1.523503     -2.060247
  O      -2.861872      2.249750     -2.909285
  C      -3.942320     -0.250347     -0.256226
  O      -4.724576     -1.143133     -1.053133
  C      -3.133410     -1.015813      0.789514
  O      -3.980117     -1.694667      1.719426
  C      -2.278213     -0.050094      1.595948
  O      -1.440670     -0.718834      2.532519
  C       1.468176      1.383832      0.590104
  O       0.916323      2.635126      0.149569
  C       2.994474      1.449559      0.421450
  O       3.549636      2.403368      1.318948
  H       5.413858     -1.894062      0.361078
  H       5.527391     -1.151310      1.988053
  H       6.763342     -0.787960      0.746402
  H       3.423879     -0.227831      1.746470
  H       1.482810     -1.330907      1.102500
  H       1.391993     -1.905705     -1.904112
  H       0.143230     -2.375805     -0.721454
  H       2.835399     -3.237633     -0.628746
  H       0.978509      0.510200     -1.304094
  H      -0.890317      1.568558      1.239885
  H      -2.329691     -0.046089     -1.686808
  H      -4.388449      2.207455     -1.476623
  H      -4.392762      0.923123     -2.711912
  H      -2.284650      2.769409     -2.334269
  H      -4.663966      0.400344      0.257246
  H      -4.118821     -1.726040     -1.533779
  H      -2.477866     -1.738591      0.273525
  H      -4.497162     -2.342523      1.222653
  H      -2.948394      0.654095      2.116873
  H      -2.019330     -1.222543      3.120268
  H       1.249655      1.216318      1.656410
  H       0.745575      3.189122      0.921727
  H       3.224917      1.712959     -0.624411
  H       3.167763      3.263744      1.098369
48
Coordinates from ORCA-job 3_opt_3c E -1337.087277511882
  C       5.705201     -0.992101      0.913556
  O       4.981503      0.160823      0.452093
  C       3.620586      0.095815      0.705628
  O       3.037583     -0.849475     -0.197291
  C       1.642644     -1.043500      0.046054
  C       1.209625     -2.185414     -0.856457
  O       1.884077     -3.399100     -0.527715
  C       0.873009      0.255127     -0.237068
  O      -0.502368     -0.077884      0.020880
  C      -1.397666      0.785171      0.669835
  O      -2.232794      1.469949     -0.258096
  C      -3.007602      0.602486     -1.110162
  C      -3.751017      1.515113     -2.065843
  O      -2.857862      2.242277     -2.910267
  C      -3.946940     -0.252229     -0.255512
  O      -4.732352     -1.144780     -1.048828
  C      -3.137521     -1.018344      0.789038
  O      -3.982852     -1.698008      1.719042
  C      -2.281388     -0.053960      1.596608
  O      -1.444009     -0.724914      2.531718
  C       1.464162      1.383595      0.596746
  O       0.899472      2.631949      0.169292
  C       2.992095      1.451922      0.425587
  O       3.548934      2.402911      1.325406
  H       5.414059     -1.890083      0.356938
  H       5.529781     -1.151112      1.985763
  H       6.762328     -0.781910      0.742156
  H       3.421608     -0.228990      1.746976
  H       1.480593     -1.326250      1.101300
  H       1.391209     -1.901369     -1.905514
  H       0.140333     -2.368519     -0.724366
  H       2.831559     -3.233045     -0.621892
  H       0.975179      0.519180     -1.302461
  H      -0.895307      1.570414      1.237864
  H      -2.330024     -0.052887     -1.681939
  H      -4.394038      2.197581     -1.487217
  H      -4.387049      0.912350     -2.720190
  H      -2.277456      2.754357     -2.331451
  H      -4.666340      0.400558      0.258367
  H      -4.129861     -1.729391     -1.531442
  H      -2.481830     -1.740748      0.272301
  H      -4.515943     -2.330062      1.218713
  H      -2.952266      0.648777      2.118688
  H      -2.023528     -1.242797      3.106346
  H       1.249658      1.207214      1.663137
  H       0.830937      3.216981      0.935091
  H       3.222782      1.717351     -0.619406
  H       3.219083      3.274963      1.071486
48
Coordinates from ORCA-job 3_opt_3c E -1337.087315167641
  C       5.703497     -0.992062      0.918223
  O       4.980302      0.160941      0.456581
  C       3.619089      0.096089      0.707477
  O       3.037707     -0.848874     -0.196519
  C       1.642645     -1.042820      0.044466
  C       1.210730     -2.183748     -0.859723
  O       1.884631     -3.397750     -0.531143
  C       0.872415      0.256002     -0.237867
  O      -0.502574     -0.078782      0.020326
  C      -1.397975      0.783598      0.670338
  O      -2.234208      1.468572     -0.257127
  C      -3.009233      0.601389     -1.109183
  C      -3.752237      1.514172     -2.064796
  O      -2.858590      2.243867     -2.906556
  C      -3.948430     -0.252669     -0.253930
  O      -4.736124     -1.144360     -1.045712
  C      -3.137947     -1.019883      0.788800
  O      -3.982187     -1.700649      1.718802
  C      -2.280954     -0.056452      1.596899
  O      -1.442900     -0.728536      2.530703
  C       1.462794      1.385170      0.595016
  O       0.900355      2.632846      0.165266
  C       2.991569      1.452883      0.426783
  O       3.546297      2.403043      1.329141
  H       5.412799     -1.889951      0.361134
  H       5.527447     -1.151425      1.990308
  H       6.760713     -0.781645      0.747534
  H       3.418204     -0.229066      1.748451
  H       1.479121     -1.326342      1.099315
  H       1.393965     -1.898788     -1.908298
  H       0.141176     -2.366742     -0.729571
  H       2.832425     -3.230753     -0.620362
  H       0.974356      0.520205     -1.303241
  H      -0.895518      1.569194      1.238143
  H      -2.331738     -0.054203     -1.680833
  H      -4.397666      2.194721     -1.486435
  H      -4.386437      0.911387     -2.720939
  H      -2.275402      2.750356     -2.325533
  H      -4.666273      0.400572      0.261563
  H      -4.135553     -1.729261     -1.530342
  H      -2.482431     -1.741631      0.270799
  H      -4.522626     -2.325210      1.216854
  H      -2.951730      0.645614      2.120025
  H      -2.022054     -1.250855      3.101727
  H       1.246692      1.210893      1.661792
  H       0.837617      3.221872      0.928395
  H       3.225376      1.719065     -0.617114
  H       3.248858      3.279999      1.053853
48
Coordinates from ORCA-job 3_opt_3c E -1337.087405975236
  C       5.698278     -0.991188      0.926142
  O       4.977452      0.162876      0.463394
  C       3.614963      0.097901      0.712872
  O       3.037312     -0.848544     -0.191422
  C       1.642005     -1.045275      0.044814
  C       1.213798     -2.183965     -0.862769
  O       1.890142     -3.398350     -0.536627
  C       0.871383      0.252279     -0.237404
  O      -0.504338     -0.083404      0.021298
  C      -1.400184      0.780729      0.672306
  O      -2.237248      1.466198     -0.253678
  C      -3.013407      0.601375     -1.107369
  C      -3.757998      1.518462     -2.056585
  O      -2.864992      2.259742     -2.890340
  C      -3.949789     -0.256886     -0.254013
  O      -4.736357     -1.148508     -1.047499
  C      -3.137721     -1.024633      0.786194
  O      -3.981091     -1.710434      1.713716
  C      -2.283611     -0.060856      1.596750
  O      -1.446237     -0.732141      2.532917
  C       1.458643      1.386014      0.589829
  O       0.892597      2.625829      0.144625
  C       2.986691      1.455117      0.430862
  O       3.530965      2.405559      1.340975
  H       5.406747     -1.889653      0.370153
  H       5.521722     -1.149767      1.998351
  H       6.756296     -0.783742      0.756096
  H       3.414190     -0.226582      1.753975
  H       1.474857     -1.329866      1.099020
  H       1.399141     -1.895399     -1.910074
  H       0.144342     -2.369931     -0.735632
  H       2.837842     -3.226415     -0.616965
  H       0.973418      0.514626     -1.303489
  H      -0.897439      1.563924      1.241994
  H      -2.336370     -0.050917     -1.683545
  H      -4.406917      2.191979     -1.473859
  H      -4.388270      0.918131     -2.718794
  H      -2.276593      2.753091     -2.303276
  H      -4.668512      0.393391      0.264290
  H      -4.134543     -1.729711     -1.535023
  H      -2.479941     -1.743088      0.266522
  H      -4.526295     -2.328064      1.208081
  H      -2.956650      0.640310      2.118212
  H      -2.024489     -1.256236      3.103100
  H       1.235406      1.217338      1.656119
  H       0.886277      3.245161      0.885442
  H       3.226658      1.724907     -0.610012
  H       3.317859      3.288611      1.013814
48
Coordinates from ORCA-job 3_opt_3c E -1337.087508902276
  C       5.692087     -0.987521      0.931886
  O       4.972268      0.167782      0.471100
  C       3.608568      0.100271      0.720096
  O       3.034753     -0.845022     -0.187003
  C       1.639324     -1.046417      0.044591
  C       1.217117     -2.183189     -0.867580
  O       1.899615     -3.396352     -0.545783
  C       0.867205      0.249215     -0.237328
  O      -0.508751     -0.087941      0.021365
  C      -1.404544      0.777938      0.673181
  O      -2.241375      1.463192     -0.251912
  C      -3.018900      0.599863     -1.106067
  C      -3.766747      1.520243     -2.049517
  O      -2.875377      2.271365     -2.877313
  C      -3.951966     -0.262298     -0.253702
  O      -4.736668     -1.154465     -1.049177
  C      -3.138266     -1.029946      0.784999
  O      -3.981235     -1.720290      1.709883
  C      -2.287983     -0.064327      1.596769
  O      -1.451034     -0.733123      2.535596
  C       1.450447      1.385324      0.588063
  O       0.874129      2.614262      0.129815
  C       2.978877      1.457871      0.441433
  O       3.509188      2.405312      1.365439
  H       5.400379     -1.885366      0.374898
  H       5.515628     -1.148061      2.003873
  H       6.750583     -0.781637      0.762526
  H       3.409190     -0.226551      1.760614
  H       1.469007     -1.333257      1.097733
  H       1.402810     -1.889707     -1.913449
  H       0.148636     -2.375765     -0.742525
  H       2.846521     -3.215685     -0.616471
  H       0.969099      0.511506     -1.303603
  H      -0.899798      1.559791      1.242584
  H      -2.342536     -0.049517     -1.686449
  H      -4.417970      2.188061     -1.462917
  H      -4.393545      0.921853     -2.716699
  H      -2.277965      2.748061     -2.285486
  H      -4.672264      0.384892      0.266392
  H      -4.132588     -1.731122     -1.539385
  H      -2.478222     -1.745611      0.264467
  H      -4.532082     -2.329405      1.199853
  H      -2.962781      0.636361      2.116603
  H      -2.028225     -1.257912      3.106100
  H       1.220105      1.219230      1.653716
  H       0.973256      3.275817      0.826531
  H       3.227630      1.736448     -0.594174
  H       3.424392      3.285825      0.979921
48
Coordinates from ORCA-job 3_opt_3c E -1337.087603718644
  C       5.686615     -0.981423      0.934704
  O       4.965744      0.174118      0.476527
  C       3.601198      0.102227      0.726634
  O       3.030349     -0.840411     -0.184354
  C       1.634880     -1.046540      0.044379
  C       1.218589     -2.182513     -0.871450
  O       1.909557     -3.393087     -0.554647
  C       0.861522      0.247411     -0.237619
  O      -0.514407     -0.090678      0.020598
  C      -1.410040      0.776444      0.672453
  O      -2.245811      1.461015     -0.252210
  C      -3.024750      0.598198     -1.105900
  C      -3.777522      1.520679     -2.043976
  O      -2.889224      2.279603     -2.868708
  C      -3.953927     -0.268170     -0.253986
  O      -4.735437     -1.161517     -1.052208
  C      -3.138560     -1.034908      0.784386
  O      -3.981430     -1.729418      1.706665
  C      -2.292918     -0.066062      1.596390
  O      -1.455445     -0.730774      2.537635
  C       1.441079      1.384394      0.588934
  O       0.857473      2.605622      0.123513
  C       2.969766      1.460160      0.454424
  O       3.482279      2.404437      1.394500
  H       5.395634     -1.878726      0.376496
  H       5.510946     -1.144379      2.006463
  H       6.745159     -0.775484      0.765527
  H       3.404597     -0.228396      1.766308
  H       1.462910     -1.335578      1.096574
  H       1.402188     -1.884406     -1.916317
  H       0.151762     -2.383380     -0.746154
  H       2.855096     -3.202108     -0.617565
  H       0.963251      0.510770     -1.303602
  H      -0.902569      1.557531      1.241048
  H      -2.349097     -0.048243     -1.690404
  H      -4.429471      2.184201     -1.453528
  H      -4.401860      0.923344     -2.714262
  H      -2.280916      2.739513     -2.274529
  H      -4.676788      0.375569      0.266815
  H      -4.127864     -1.733094     -1.544191
  H      -2.476124     -1.748021      0.263635
  H      -4.534189     -2.333662      1.192845
  H      -2.969104      0.634295      2.114806
  H      -2.031011     -1.251997      3.112889
  H       1.205923      1.218306      1.654325
  H       1.068370      3.300463      0.761314
  H       3.227670      1.749965     -0.574928
  H       3.545896      3.264707      0.963236
48
Coordinates from ORCA-job 3_opt_3c E -1337.087723994025
  C       5.686365     -0.972467      0.926719
  O       4.959517      0.180467      0.471285
  C       3.595247      0.100639      0.728222
  O       3.023486     -0.837365     -0.186608
  C       1.628136     -1.047362      0.046173
  C       1.214975     -2.186087     -0.868878
  O       1.917941     -3.391546     -0.557088
  C       0.855108      0.245664     -0.237524
  O      -0.520992     -0.089993      0.018263
  C      -1.415841      0.778106      0.667167
  O      -2.247166      1.461635     -0.258300
  C      -3.028043      0.597712     -1.109769
  C      -3.788180      1.520212     -2.043978
  O      -2.905333      2.278853     -2.874722
  C      -3.953525     -0.272470     -0.257486
  O      -4.728579     -1.167779     -1.061193
  C      -3.138290     -1.036830      0.784542
  O      -3.983408     -1.732341      1.704595
  C      -2.298280     -0.062263      1.594298
  O      -1.458935     -0.719639      2.537709
  C       1.433254      1.381076      0.595290
  O       0.856291      2.607170      0.136746
  C       2.961339      1.458103      0.468024
  O       3.451505      2.401872      1.423321
  H       5.397440     -1.870204      0.368477
  H       5.513852     -1.137006      1.998631
  H       6.743883     -0.763363      0.755394
  H       3.405955     -0.235060      1.767267
  H       1.459663     -1.337048      1.098382
  H       1.390279     -1.886131     -1.914407
  H       0.151167     -2.397175     -0.736534
  H       2.861214     -3.189367     -0.621827
  H       0.957189      0.511548     -1.302371
  H      -0.904754      1.558191      1.236201
  H      -2.353559     -0.046530     -1.697810
  H      -4.434807      2.185216     -1.449917
  H      -4.414541      0.922227     -2.711471
  H      -2.285860      2.729055     -2.284495
  H      -4.681237      0.367801      0.260515
  H      -4.114424     -1.734296     -1.551095
  H      -2.473993     -1.749408      0.266059
  H      -4.523775     -2.346630      1.189816
  H      -2.974173      0.639192      2.111354
  H      -2.032151     -1.221995      3.131536
  H       1.200087      1.211046      1.661439
  H       1.126296      3.304567      0.750813
  H       3.225168      1.761247     -0.555385
  H       3.644480      3.228752      0.966107
48
Coordinates from ORCA-job 3_opt_3c E -1337.088029840947
  C       5.690198     -0.955573      0.915545
  O       4.953217      0.193080      0.465129
  C       3.590512      0.103393      0.729277
  O       3.017768     -0.830866     -0.189306
  C       1.623084     -1.045825      0.049916
  C       1.211222     -2.188307     -0.861825
  O       1.923386     -3.388874     -0.552523
  C       0.848413      0.245125     -0.235336
  O      -0.528211     -0.089781      0.017723
  C      -1.423862      0.778048      0.663611
  O      -2.252434      1.460594     -0.263162
  C      -3.033693      0.595524     -1.113564
  C      -3.798459      1.517075     -2.045867
  O      -2.919520      2.275466     -2.880669
  C      -3.956965     -0.277126     -0.261175
  O      -4.727493     -1.174980     -1.067222
  C      -3.141771     -1.039494      0.782928
  O      -3.988154     -1.737170      1.700071
  C      -2.306434     -0.061434      1.592330
  O      -1.466386     -0.714072      2.537418
  C       1.423712      1.378699      0.603211
  O       0.846580      2.607012      0.156153
  C       2.950988      1.459830      0.481355
  O       3.414532      2.406316      1.450359
  H       5.404454     -1.854073      0.357038
  H       5.523507     -1.122764      1.987852
  H       6.745566     -0.739621      0.739816
  H       3.408569     -0.238894      1.767250
  H       1.460570     -1.335235      1.102816
  H       1.378210     -1.888935     -1.908731
  H       0.149690     -2.405970     -0.722042
  H       2.864852     -3.179410     -0.621820
  H       0.951440      0.513099     -1.299189
  H      -0.911928      1.558124      1.233004
  H      -2.359365     -0.047147     -1.703276
  H      -4.442386      2.182710     -1.449911
  H      -4.425984      0.917699     -2.710924
  H      -2.295956      2.724076     -2.293490
  H      -4.688115      0.360884      0.254545
  H      -4.109110     -1.737458     -1.556571
  H      -2.475454     -1.750674      0.265418
  H      -4.529349     -2.347108      1.180883
  H      -2.982908      0.640273      2.108087
  H      -2.038362     -1.207035      3.140137
  H       1.193624      1.200312      1.669476
  H       1.205292      3.308751      0.718861
  H       3.219269      1.775693     -0.536174
  H       3.803633      3.156037      0.986056
48
Coordinates from ORCA-job 3_opt_3c E -1337.088424447968
  C       5.692322     -0.932466      0.907365
  O       4.944074      0.210120      0.459925
  C       3.582313      0.107443      0.729692
  O       3.011416     -0.823211     -0.193834
  C       1.617247     -1.044784      0.049868
  C       1.209741     -2.190954     -0.860007
  O       1.934980     -3.385069     -0.554795
  C       0.840193      0.243644     -0.237128
  O      -0.536409     -0.090865      0.014459
  C      -1.431406      0.778245      0.657812
  O      -2.257330      1.459101     -0.269720
  C      -3.041467      0.592775     -1.116783
  C      -3.813317      1.513886     -2.045069
  O      -2.939908      2.273681     -2.884414
  C      -3.960483     -0.281975     -0.262003
  O      -4.727696     -1.182648     -1.069381
  C      -3.143830     -1.041972      0.783602
  O      -3.990906     -1.742098      1.698475
  C      -2.313026     -0.058968      1.590465
  O      -1.470789     -0.704853      2.537299
  C       1.411095      1.377322      0.605744
  O       0.836871      2.607013      0.165955
  C       2.936799      1.462304      0.493855
  O       3.360904      2.413001      1.480707
  H       5.411869     -1.832828      0.349363
  H       5.530652     -1.101439      1.980051
  H       6.745456     -0.708722      0.728241
  H       3.407820     -0.241222      1.766466
  H       1.459635     -1.334543      1.103082
  H       1.367800     -1.890603     -1.907858
  H       0.151476     -2.419113     -0.713091
  H       2.873790     -3.163259     -0.623950
  H       0.943061      0.513227     -1.300188
  H      -0.916269      1.558104      1.226355
  H      -2.368934     -0.048486     -1.709919
  H      -4.453718      2.179533     -1.445719
  H      -4.442011      0.913390     -2.707806
  H      -2.305703      2.712129     -2.300826
  H      -4.694480      0.353693      0.252343
  H      -4.105267     -1.740189     -1.559464
  H      -2.475808     -1.751748      0.266699
  H      -4.536138     -2.344309      1.174429
  H      -2.989152      0.643858      2.104891
  H      -2.039950     -1.183431      3.153924
  H       1.182309      1.193388      1.672753
  H       1.310606      3.310115      0.636583
  H       3.216647      1.792312     -0.515053
  H       3.974915      3.031467      1.070089
48
Coordinates from ORCA-job 3_opt_3c E -1337.088821284588
  C       5.702529     -0.903359      0.911261
  O       4.937871      0.227291      0.459856
  C       3.577771      0.109788      0.723524
  O       3.012706     -0.821101     -0.205531
  C       1.618649     -1.045851      0.043536
  C       1.210007     -2.195432     -0.861892
  O       1.936866     -3.386391     -0.554259
  C       0.837409      0.241754     -0.241906
  O      -0.538616     -0.093880      0.009889
  C      -1.432328      0.774037      0.653544
  O      -2.259815      1.456080     -0.273528
  C      -3.046715      0.589809     -1.118084
  C      -3.816347      1.509310     -2.049167
  O      -2.942878      2.261037     -2.894449
  C      -3.967895     -0.278791     -0.258982
  O      -4.742157     -1.179170     -1.059669
  C      -3.151068     -1.040870      0.784571
  O      -3.998032     -1.738707      1.700646
  C      -2.313154     -0.061729      1.589516
  O      -1.467667     -0.711274      2.530831
  C       1.404091      1.375865      0.603092
  O       0.845733      2.618181      0.184672
  C       2.926142      1.461647      0.486947
  O       3.308382      2.434588      1.469352
  H       5.435381     -1.807897      0.353485
  H       5.541003     -1.072092      1.983851
  H       6.752134     -0.663266      0.733040
  H       3.399971     -0.242677      1.758269
  H       1.468508     -1.336075      1.097558
  H       1.363070     -1.898441     -1.911520
  H       0.151915     -2.422233     -0.710427
  H       2.875457     -3.165797     -0.629432
  H       0.939542      0.512015     -1.304644
  H      -0.918786      1.554415      1.223231
  H      -2.376086     -0.055336     -1.709137
  H      -4.454135      2.179127     -1.451383
  H      -4.449559      0.907334     -2.706393
  H      -2.313460      2.711664     -2.315164
  H      -4.697322      0.361609      0.255948
  H      -4.125232     -1.740878     -1.551889
  H      -2.486696     -1.752416      0.264837
  H      -4.562099     -2.321016      1.173698
  H      -2.985147      0.642240      2.107492
  H      -2.035780     -1.179549      3.156257
  H       1.180845      1.183258      1.670704
  H       1.361834      3.302198      0.640492
  H       3.214153      1.788281     -0.521701
  H       4.078994      2.912693      1.142543
48
Coordinates from ORCA-job 3_opt_3c E -1337.089243380281
  C       5.700535     -0.901691      0.943711
  O       4.938362      0.226771      0.481791
  C       3.577268      0.113305      0.723982
  O       3.020750     -0.822609     -0.206311
  C       1.625425     -1.041255      0.034328
  C       1.212119     -2.184260     -0.875682
  O       1.918314     -3.383964     -0.561259
  C       0.841942      0.248885     -0.243788
  O      -0.532160     -0.094413      0.011307
  C      -1.427832      0.767231      0.663007
  O      -2.264142      1.452272     -0.261156
  C      -3.046059      0.587624     -1.110716
  C      -3.804257      1.505869     -2.049102
  O      -2.923430      2.254125     -2.888843
  C      -3.973138     -0.276147     -0.253134
  O      -4.757771     -1.172916     -1.045104
  C      -3.155566     -1.043642      0.783333
  O      -3.998662     -1.741881      1.701607
  C      -2.306872     -0.075605      1.593146
  O      -1.460386     -0.739035      2.526066
  C       1.408405      1.382655      0.598357
  O       0.844336      2.626942      0.188647
  C       2.929988      1.465405      0.464828
  O       3.330291      2.456324      1.415849
  H       5.440892     -1.807425      0.384043
  H       5.527628     -1.068338      2.014885
  H       6.750668     -0.656817      0.775488
  H       3.380150     -0.234531      1.757236
  H       1.470348     -1.335027      1.087176
  H       1.378984     -1.887653     -1.923702
  H       0.148315     -2.393230     -0.736713
  H       2.861304     -3.182971     -0.632119
  H       0.942816      0.519224     -1.307204
  H      -0.922666      1.549574      1.234180
  H      -2.372157     -0.060201     -1.695456
  H      -4.449072      2.175003     -1.457127
  H      -4.436821      0.903895     -2.707520
  H      -2.312444      2.725280     -2.306489
  H      -4.694824      0.369358      0.266799
  H      -4.152114     -1.742569     -1.541788
  H      -2.494310     -1.754814      0.257856
  H      -4.586556     -2.301636      1.175768
  H      -2.978679      0.624255      2.117120
  H      -2.031151     -1.227094      3.134012
  H       1.186472      1.185176      1.664557
  H       1.330318      3.311568      0.673359
  H       3.206677      1.767443     -0.557142
  H       4.108750      2.911536      1.071403
48
Coordinates from ORCA-job 3_opt_3c E -1337.089593812491
  C       5.686409     -0.899188      0.972168
  O       4.935132      0.231843      0.499322
  C       3.571106      0.126475      0.726524
  O       3.021551     -0.815682     -0.199490
  C       1.624930     -1.027475      0.028250
  C       1.210514     -2.161179     -0.891164
  O       1.899937     -3.370528     -0.575421
  C       0.840596      0.263882     -0.245125
  O      -0.530595     -0.089410      0.013800
  C      -1.430370      0.766711      0.673134
  O      -2.274254      1.449572     -0.248836
  C      -3.048438      0.583414     -1.102830
  C      -3.805489      1.499332     -2.043128
  O      -2.923624      2.253546     -2.876922
  C      -3.973046     -0.285193     -0.248396
  O      -4.757814     -1.182746     -1.037736
  C      -3.150913     -1.052064      0.783520
  O      -3.988358     -1.757140      1.701367
  C      -2.304080     -0.085193      1.597373
  O      -1.455272     -0.751595      2.527804
  C       1.408376      1.398831      0.592814
  O       0.815511      2.628931      0.173217
  C       2.930743      1.479788      0.446554
  O       3.363221      2.477348      1.371814
  H       5.427471     -1.805998      0.413838
  H       5.502836     -1.060883      2.042440
  H       6.739208     -0.659885      0.812548
  H       3.361825     -0.213161      1.760486
  H       1.457910     -1.324136      1.078971
  H       1.393238     -1.860505     -1.935546
  H       0.142723     -2.359090     -0.767040
  H       2.846107     -3.181484     -0.633067
  H       0.939188      0.534303     -1.309310
  H      -0.930527      1.552116      1.242190
  H      -2.369299     -0.060688     -1.685875
  H      -4.457499      2.163521     -1.453179
  H      -4.433618      0.896381     -2.705182
  H      -2.319570      2.728641     -2.290501
  H      -4.694411      0.357443      0.275971
  H      -4.154503     -1.750910     -1.538815
  H      -2.485944     -1.758353      0.255728
  H      -4.589925     -2.302639      1.175804
  H      -2.981137      0.608239      2.123517
  H      -2.025079     -1.256840      3.122670
  H       1.186636      1.202668      1.658502
  H       1.345935      3.334967      0.569919
  H       3.183463      1.767161     -0.586870
  H       4.249190      2.766848      1.117678
48
Coordinates from ORCA-job 3_opt_3c E -1337.089768339126
  C       5.691232     -0.892888      0.967333
  O       4.935934      0.233309      0.489037
  C       3.572458      0.126142      0.721618
  O       3.020448     -0.821981     -0.197040
  C       1.623821     -1.030995      0.034464
  C       1.205980     -2.165703     -0.882886
  O       1.892995     -3.376207     -0.566201
  C       0.840477      0.261615     -0.239642
  O      -0.531407     -0.088883      0.016589
  C      -1.431691      0.767058      0.674007
  O      -2.272571      1.450950     -0.248708
  C      -3.045190      0.585591     -1.105006
  C      -3.800945      1.502332     -2.046132
  O      -2.917844      2.253180     -2.881421
  C      -3.971771     -0.284045     -0.253496
  O      -4.754050     -1.179564     -1.047779
  C      -3.152426     -1.052055      0.780858
  O      -3.992380     -1.755799      1.697572
  C      -2.306873     -0.085581      1.596393
  O      -1.458681     -0.752900      2.525895
  C       1.410416      1.396366      0.598765
  O       0.821652      2.630526      0.182574
  C       2.929817      1.477121      0.439381
  O       3.370033      2.482966      1.350562
  H       5.433544     -1.803458      0.414676
  H       5.509553     -1.048569      2.038804
  H       6.743175     -0.651905      0.804642
  H       3.367699     -0.208286      1.758171
  H       1.458276     -1.325925      1.085764
  H       1.388279     -1.867107     -1.927887
  H       0.138133     -2.361745     -0.757080
  H       2.839413     -3.191561     -0.633173
  H       0.940146      0.532869     -1.303357
  H      -0.931961      1.551185      1.245968
  H      -2.365289     -0.057944     -1.687603
  H      -4.450615      2.169045     -1.456633
  H      -4.430329      0.900240     -2.707664
  H      -2.323241      2.741052     -2.295943
  H      -4.694744      0.357999      0.269275
  H      -4.148625     -1.748231     -1.545716
  H      -2.487252     -1.759210      0.254788
  H      -4.578946     -2.318022      1.173159
  H      -2.983644      0.607265      2.123554
  H      -2.029099     -1.247268      3.129137
  H       1.194540      1.202056      1.665499
  H       1.305297      3.333445      0.639548
  H       3.168461      1.756769     -0.599091
  H       4.257785      2.756742      1.087911
48
Coordinates from ORCA-job 3_opt_3c E -1337.089826824681
  C       5.694856     -0.883810      0.963958
  O       4.934730      0.237506      0.481474
  C       3.571413      0.126123      0.717133
  O       3.019877     -0.825373     -0.198055
  C       1.623517     -1.034211      0.035582
  C       1.205407     -2.169776     -0.881123
  O       1.894955     -3.379543     -0.566124
  C       0.840138      0.258616     -0.239579
  O      -0.532063     -0.089254      0.015975
  C      -1.431911      0.767815      0.671862
  O      -2.271001      1.451863     -0.250872
  C      -3.044870      0.586643     -1.106502
  C      -3.800774      1.504132     -2.047230
  O      -2.917374      2.253063     -2.884028
  C      -3.971949     -0.282605     -0.254802
  O      -4.753149     -1.177281     -1.051437
  C      -3.154032     -1.050477      0.781414
  O      -3.995730     -1.750412      1.699527
  C      -2.307608     -0.083575      1.595522
  O      -1.459257     -0.750680      2.524482
  C       1.409023      1.395587      0.597955
  O       0.822809      2.628566      0.175173
  C       2.926610      1.475612      0.436640
  O       3.362370      2.483191      1.347145
  H       5.440372     -1.797388      0.414896
  H       5.513927     -1.035967      2.036026
  H       6.745927     -0.639815      0.800150
  H       3.369932     -0.206242      1.754927
  H       1.458995     -1.328605      1.087078
  H       1.385403     -1.870900     -1.926376
  H       0.138377     -2.368234     -0.752812
  H       2.840787     -3.194219     -0.639582
  H       0.940042      0.530142     -1.303083
  H      -0.930233      1.550905      1.244009
  H      -2.365981     -0.057318     -1.689713
  H      -4.448165      2.172633     -1.457384
  H      -4.431266      0.902763     -2.708200
  H      -2.325632      2.745254     -2.299362
  H      -4.695466      0.359701      0.266794
  H      -4.146244     -1.747148     -1.546201
  H      -2.490369     -1.759956      0.256873
  H      -4.567588     -2.330217      1.178265
  H      -2.982777      0.610099      2.123460
  H      -2.029570     -1.230069      3.139644
  H       1.191868      1.206472      1.665369
  H       1.284416      3.332797      0.652827
  H       3.162345      1.756106     -0.602695
  H       4.274904      2.707481      1.124493
48
Coordinates from ORCA-job 3_opt_3c E -1337.089850466114
  C       5.694554     -0.883919      0.965942
  O       4.934833      0.236127      0.479835
  C       3.570949      0.125169      0.716273
  O       3.019788     -0.828403     -0.196112
  C       1.623450     -1.035637      0.036003
  C       1.204978     -2.169742     -0.882532
  O       1.893274     -3.381034     -0.569055
  C       0.841159      0.257731     -0.239673
  O      -0.531168     -0.088666      0.015941
  C      -1.431282      0.768883      0.671472
  O      -2.269799      1.452902     -0.250881
  C      -3.043808      0.587837     -1.106687
  C      -3.799191      1.506131     -2.047253
  O      -2.914779      2.254760     -2.883602
  C      -3.971315     -0.281813     -0.255654
  O      -4.751109     -1.175442     -1.054809
  C      -3.154481     -1.049391      0.781897
  O      -3.997073     -1.745297      1.702362
  C      -2.306879     -0.082543      1.595066
  O      -1.458711     -0.750428      2.523515
  C       1.409793      1.396846      0.596050
  O       0.821151      2.623952      0.158929
  C       2.927417      1.475050      0.437046
  O       3.372083      2.475641      1.349769
  H       5.440968     -1.798862      0.418798
  H       5.512099     -1.033671      2.038083
  H       6.745939     -0.640559      0.803191
  H       3.370290     -0.205153      1.754955
  H       1.456587     -1.330210      1.087111
  H       1.386574     -1.869405     -1.927034
  H       0.137892     -2.368236     -0.755315
  H       2.839164     -3.197682     -0.646487
  H       0.941453      0.529271     -1.303196
  H      -0.928257      1.551404      1.243037
  H      -2.365136     -0.056062     -1.690197
  H      -4.445862      2.175270     -1.457438
  H      -4.429728      0.905744     -2.708960
  H      -2.326188      2.749894     -2.298298
  H      -4.695388      0.360298      0.265363
  H      -4.142930     -1.747022     -1.545986
  H      -2.492280     -1.761116      0.258834
  H      -4.549201     -2.348758      1.187036
  H      -2.981300      0.611166      2.123855
  H      -2.029237     -1.220105      3.145855
  H       1.187198      1.215561      1.663196
  H       1.238765      3.334476      0.665981
  H       3.161203      1.757133     -0.602589
  H       4.283530      2.697906      1.119852
48
Coordinates from ORCA-job 3_opt_3c E -1337.089862431236
  C       5.694023     -0.882721      0.969062
  O       4.933936      0.236797      0.482331
  C       3.569946      0.125007      0.716071
  O       3.020341     -0.827045     -0.198862
  C       1.623863     -1.034835      0.032758
  C       1.205402     -2.168944     -0.885686
  O       1.893087     -3.380227     -0.571500
  C       0.841393      0.258277     -0.242663
  O      -0.530664     -0.088538      0.014363
  C      -1.430416      0.768999      0.670512
  O      -2.270187      1.452620     -0.251440
  C      -3.044864      0.587195     -1.106202
  C      -3.800485      1.504866     -2.047045
  O      -2.916474      2.252736     -2.884429
  C      -3.971980     -0.281423     -0.253741
  O      -4.753133     -1.175427     -1.051088
  C      -3.154223     -1.048752      0.783093
  O      -3.995802     -1.744139      1.704957
  C      -2.304970     -0.082168      1.595115
  O      -1.455812     -0.750287      2.522771
  C       1.409389      1.398168      0.592311
  O       0.820554      2.624654      0.154538
  C       2.927439      1.475664      0.436976
  O       3.367374      2.475946      1.352719
  H       5.442030     -1.797573      0.421019
  H       5.510215     -1.033119      2.040844
  H       6.745317     -0.638085      0.807815
  H       3.367175     -0.206643      1.753921
  H       1.457274     -1.329731      1.083839
  H       1.387331     -1.868919     -1.930214
  H       0.138105     -2.366676     -0.758857
  H       2.839076     -3.197586     -0.649196
  H       0.941074      0.529173     -1.306433
  H      -0.927495      1.552209      1.241061
  H      -2.366591     -0.057381     -1.689460
  H      -4.446985      2.174339     -1.457402
  H      -4.431737      0.904076     -2.707746
  H      -2.327612      2.748425     -2.299857
  H      -4.695133      0.361375      0.267691
  H      -4.146019     -1.747911     -1.542529
  H      -2.492846     -1.760803      0.259316
  H      -4.549260     -2.347152      1.190527
  H      -2.978810      0.611765      2.124357
  H      -2.025908     -1.221040      3.144718
  H       1.185599      1.216619      1.659193
  H       1.244132      3.335686      0.655857
  H       3.166582      1.758257     -0.601427
  H       4.286739      2.684264      1.141529
48
Coordinates from ORCA-job 3_opt_3c E -1337.089866856237
  C       5.693335     -0.882792      0.972408
  O       4.933383      0.236476      0.484904
  C       3.569155      0.124413      0.716196
  O       3.020801     -0.825890     -0.201175
  C       1.624110     -1.034213      0.029772
  C       1.205883     -2.168293     -0.888724
  O       1.892552     -3.379775     -0.573488
  C       0.841602      0.258738     -0.245394
  O      -0.530305     -0.088200      0.012975
  C      -1.429655      0.769456      0.669698
  O      -2.270392      1.452721     -0.251967
  C      -3.045621      0.586961     -1.105790
  C      -3.801518      1.504083     -2.046828
  O      -2.917907      2.251238     -2.885264
  C      -3.972415     -0.280974     -0.252263
  O      -4.754331     -1.175328     -1.048440
  C      -3.153976     -1.047913      0.784253
  O      -3.994709     -1.742426      1.707639
  C      -2.303366     -0.081401      1.595119
  O      -1.453432     -0.749565      2.522235
  C       1.409415      1.398967      0.589001
  O       0.820178      2.624612      0.150346
  C       2.927878      1.476019      0.437382
  O       3.365263      2.474974      1.356239
  H       5.442487     -1.797590      0.423702
  H       5.508224     -1.033565      2.043895
  H       6.744679     -0.637476      0.812534
  H       3.364548     -0.208572      1.753265
  H       1.457594     -1.329476      1.080767
  H       1.388745     -1.868647     -1.933210
  H       0.138293     -2.365095     -0.762801
  H       2.838688     -3.198367     -0.652041
  H       0.940696      0.529120     -1.309381
  H      -0.926697      1.553352      1.239202
  H      -2.367655     -0.058118     -1.688879
  H      -4.447699      2.173940     -1.457245
  H      -4.433491      0.902970     -2.706575
  H      -2.329242      2.748015     -2.301423
  H      -4.695059      0.362253      0.269346
  H      -4.147853     -1.748653     -1.539665
  H      -2.493368     -1.760481      0.260163
  H      -4.546457     -2.348409      1.194913
  H      -2.976763      0.612779      2.124647
  H      -2.023198     -1.222090      3.143162
  H       1.184702      1.217176      1.655721
  H       1.243520      3.335912      0.651462
  H       3.172240      1.759065     -0.599677
  H       4.287127      2.680065      1.152770
48
Coordinates from ORCA-job 3_opt_3c E -1337.089868423132
  C       5.692990     -0.883080      0.973958
  O       4.933261      0.236048      0.485798
  C       3.568862      0.124098      0.716201
  O       3.020882     -0.825501     -0.202016
  C       1.624070     -1.034031      0.028665
  C       1.205981     -2.168125     -0.889801
  O       1.891708     -3.379886     -0.573702
  C       0.841612      0.258926     -0.246395
  O      -0.530271     -0.087901      0.012550
  C      -1.429392      0.769898      0.669511
  O      -2.270424      1.453039     -0.252109
  C      -3.045771      0.587163     -1.105641
  C      -3.801824      1.504086     -2.046697
  O      -2.918441      2.250969     -2.885632
  C      -3.972461     -0.280778     -0.251948
  O      -4.754247     -1.175262     -1.048079
  C      -3.153868     -1.047424      0.784700
  O      -3.994283     -1.741352      1.708856
  C      -2.302890     -0.080816      1.595112
  O      -1.452799     -0.748884      2.522194
  C       1.409565      1.399155      0.587734
  O       0.819976      2.624421      0.148898
  C       2.928081      1.476155      0.437345
  O       3.365043      2.474576      1.357100
  H       5.442355     -1.798060      0.425423
  H       5.507497     -1.033528      2.045427
  H       6.744395     -0.637797      0.814377
  H       3.363676     -0.209360      1.753007
  H       1.457566     -1.329407      1.079624
  H       1.389718     -1.868845     -1.934249
  H       0.138154     -2.364187     -0.764625
  H       2.837970     -3.199665     -0.653273
  H       0.940377      0.529082     -1.310481
  H      -0.926366      1.554088      1.238559
  H      -2.367850     -0.057981     -1.688730
  H      -4.447777      2.174111     -1.457032
  H      -4.434138      0.902870     -2.706028
  H      -2.330259      2.748742     -2.302162
  H      -4.695189      0.362415      0.269594
  H      -4.147757     -1.748895     -1.538910
  H      -2.493508     -1.760303      0.260741
  H      -4.542882     -2.351338      1.197572
  H      -2.976250      0.613458      2.124598
  H      -2.022516     -1.223080      3.141903
  H       1.184920      1.217125      1.654499
  H       1.241144      3.335710      0.651841
  H       3.174441      1.759115     -0.599216
  H       4.286910      2.680230      1.154428
