48
-84.825432954
C 5.121749 1.327551 1.171583
O 4.407234 0.097096 1.203374
C 3.508204 -0.067305 0.171962
O 2.430855 0.827985 0.371632
C 1.393562 0.739620 -0.586279
C 0.527127 1.984921 -0.346084
O -0.316687 2.316529 -1.407863
C 0.731023 -0.648231 -0.453454
O -0.320257 -0.900142 -1.368836
C -1.641594 -1.210237 -0.932288
O -1.783492 -1.443760 0.429044
C -2.114169 -0.356909 1.291331
C -2.419945 -1.000571 2.657287
O -2.645856 -0.043191 3.660207
C -3.309685 0.458268 0.780367
O -3.536433 1.592897 1.576958
C -3.025196 0.937431 -0.646373
O -4.154279 1.570283 -1.208853
C -2.717690 -0.273086 -1.527226
O -2.334239 0.089850 -2.821234
C 1.822605 -1.701553 -0.741823
O 1.351617 -3.010609 -0.544882
C 3.036967 -1.525871 0.176874
O 4.107042 -2.319670 -0.256433
H 4.437834 2.173483 1.265529
H 5.691710 1.414055 0.241272
H 5.797529 1.293382 2.021748
H 3.980518 0.145125 -0.812071
H 1.819407 0.803787 -1.603590
H 1.224554 2.804328 -0.122583
H -0.109218 1.842755 0.529604
H 0.201334 2.454282 -2.211171
H 0.395024 -0.792920 0.578450
H -1.831278 -2.199671 -1.388498
H -1.265114 0.336519 1.396120
H -1.600950 -1.679833 2.913472
H -3.337209 -1.587869 2.572126
H -1.805081 0.328261 3.957820
H -4.204695 -0.186680 0.759483
H -3.598083 1.308242 2.505098
H -2.175429 1.628233 -0.646066
H -4.423357 2.278536 -0.608856
H -3.648769 -0.869665 -1.566466
H -2.932439 0.795560 -3.107351
H 2.149711 -1.572660 -1.787018
H 0.560838 -3.133893 -1.085768
H 2.747952 -1.784727 1.206078
H 3.806743 -3.239929 -0.272873
