48
 energy: -84.858004136594 gnorm: 0.000785873450 xtb: 6.7.1 (edcfbbe)
C            5.63322819344307        1.05357753800150        0.42401769218390
O            4.96909654602084       -0.04559101521212       -0.19491358666646
C            3.60404814900094        0.11683545865957       -0.35030763476165
O            2.98796960505274        0.08212752310773        0.91710940151363
C            1.58195905933825        0.24929213669546        0.88705285724368
C            1.11900244634403        0.14127268271241        2.35014945933622
O            1.46990819658946       -1.09856920344004        2.90605202563265
C            0.91087966582174       -0.83082350742586        0.02114229516324
O           -0.44484616310253       -0.48772757853094       -0.22650444697442
C           -1.44996114428353       -1.36094452507727        0.21630884941705
O           -2.02520233561857       -0.91533059039952        1.41286122040603
C           -2.63179053062926        0.36994260220225        1.30210086875445
C           -3.13184639445234        0.76962447048997        2.68718427982524
O           -2.03327283361645        1.22033501916357        3.44492346212779
C           -3.75870033307973        0.34503423367986        0.26149919712952
O           -4.31407430784773        1.62984062335064        0.16951354239210
C           -3.18311000526890       -0.11936050735841       -1.08291695933257
O           -4.23807148010488       -0.18862172771169       -2.01263171615117
C           -2.50807226959800       -1.48524235398664       -0.89302315265386
O           -1.97362174436321       -1.97642955284323       -2.09225006430699
C            1.58210018810407       -0.91841171320279       -1.36799272643879
O            1.00307759338969       -1.94031344043424       -2.13415720272498
C            3.10044711757330       -1.03840675144200       -1.23343531298982
O            3.67227839610691       -0.98708366235090       -2.51073109007069
H            5.24912632707909        1.21698644426282        1.43130100734483
H            5.50006754386487        1.95993115480887       -0.17300637478558
H            6.68190338878479        0.77395302907502        0.45890526139419
H            3.37167745849931        1.08438194718046       -0.84304429987678
H            1.32248680058011        1.23628008905756        0.47863713872099
H            1.56214349906702        0.96463954908970        2.92099221722274
H            0.03223072198598        0.21503173751831        2.40662110622012
H            2.43677891691649       -1.16537897171620        2.90858462973048
H            0.97693430257784       -1.79391193293996        0.54099833172659
H           -1.03723796623721       -2.34993991894876        0.45433675975882
H           -1.87995215778012        1.10461358654995        0.98233003844538
H           -3.59682009709714       -0.10875534073191        3.14850684059174
H           -3.87249543877879        1.56724001530871        2.55941241233405
H           -2.32921078270865        1.41696899019097        4.34506922813306
H           -4.52524558292157       -0.38057951523735        0.57855743590234
H           -4.91503024424894        1.64281566516236       -0.59243536681228
H           -2.42780288534449        0.60842528539298       -1.41872261677716
H           -3.93565249568830       -0.70317424578697       -2.77653790554167
H           -3.26838246907112       -2.20700030132801       -0.57023007605950
H           -1.05507095761090       -1.67025824634421       -2.20530788070157
H            1.35479872633154        0.00787967441577       -1.90927807938866
H            1.41596758224733       -2.79260616842609       -1.93222975770611
H            3.35886527397514       -1.98010022475052       -0.72403367816793
H            4.63830191767889       -1.00880647718558       -2.42800757815820
