48
 energy: -84.851644738241 gnorm: 0.000386495696 xtb: 6.7.1 (edcfbbe)
C            5.66607038578142        0.98234765462776        0.45395523012115
O            4.98145813064998       -0.08855832540124       -0.19213139583033
C            3.62283854806521        0.11091656518254       -0.35672955202329
O            2.99739622548450        0.06314390015858        0.90628296116197
C            1.59533318162073        0.25804457887806        0.87093154257532
C            1.12400638285554        0.13305510923483        2.33041650754625
O            1.46368448777253       -1.11530409089790        2.87226931419205
C            0.92162539355621       -0.80043926872286       -0.01344927743922
O           -0.43719046872546       -0.46591595273691       -0.25655400336958
C           -1.42769478393869       -1.36042615304690        0.17029549208249
O           -2.01297427591257       -0.94548502194172        1.37275603378611
C           -2.63858911055371        0.33321590080722        1.27711408868978
C           -3.18812253415830        0.69334423093666        2.66566499155899
O           -2.24140692844213        1.33079540837236        3.48387790728271
C           -3.74447840425681        0.31099871843338        0.21300559623342
O           -4.29721044313386        1.59801733543934        0.11515278847106
C           -3.16597020485639       -0.14508039327761       -1.13991819022849
O           -4.16463033480018       -0.14947473074492       -2.12661764501664
C           -2.48293685689277       -1.50392356201316       -0.95081907337132
O           -1.87179305080712       -1.91896656983536       -2.14874426383922
C            1.58386634145366       -0.87535797338960       -1.40565497363101
O            1.08247461359691       -1.97394448811799       -2.11931481036932
C            3.10304073417058       -0.99444836820545       -1.29362289309731
O            3.65739182788649       -0.84366414713072       -2.57157639031155
H            5.27080145278549        1.14162211849095        1.45767925394470
H            5.56787827089344        1.90044328865611       -0.13201385325627
H            6.70574892783014        0.67264919843260        0.50087275778031
H            3.41986035134570        1.09832852205435       -0.82395601600827
H            1.35822045635075        1.25563058243811        0.47356582201423
H            1.57085949610226        0.94442678114438        2.91651106468617
H            0.03696799288388        0.20538380810835        2.38360662619028
H            2.42763853862098       -1.20737332559039        2.83526632392370
H            1.00134507747068       -1.77666597145278        0.47908440982330
H           -0.98985638069951       -2.34191507198631        0.39834535789574
H           -1.89111538857761        1.07911631507408        0.97170212310351
H           -3.45636302564110       -0.23504358352976        3.17353521741324
H           -4.07870883741770        1.31531354419806        2.53543679358370
H           -2.14313550992187        2.25056247436746        3.20112160465540
H           -4.52097251735570       -0.40749895993704        0.52922852451438
H           -4.73341803741218        1.67906305946804       -0.74918873428227
H           -2.41730651644707        0.57656164831754       -1.48186924371046
H           -4.77970328707605       -0.88348191876792       -1.97811620653526
H           -3.23171559598415       -2.22823169754220       -0.60725248367285
H           -1.93210910101711       -2.88089313314421       -2.24260044194003
H            1.35913876980378        0.05927847916140       -1.94139937455503
H            0.13548488307776       -1.81375096496215       -2.29816371163759
H            3.35839869549958       -1.97193725599441       -0.86329100719933
H            4.61517042431890       -0.98341931725575       -2.51742473858232
