48
 energy: -84.854724512711 gnorm: 0.000312854573 xtb: 6.7.1 (edcfbbe)
C            5.60827269551155        1.24555336516047        0.32960713133657
O            4.99751266360383        0.11277269277293       -0.28230232866690
C            3.62398807267444        0.19375773461635       -0.42549885926496
O            3.00975892187883        0.17781655804061        0.84418393785114
C            1.60181525831803        0.30697484864635        0.78259902125732
C            1.09780022379827        0.30881319935688        2.23103241747792
O            1.40017198971449        1.50142294808967        2.90070223504873
C            0.94780831371771       -0.82001102247792       -0.03949528010960
O           -0.40191100175318       -0.46405425019157       -0.30286625728740
C           -1.42039201847574       -1.30697568006758        0.15947899833903
O           -1.99789810975852       -0.83384868503276        1.34717864578386
C           -2.61742524473557        0.45058732999391        1.24604900687610
C           -3.27059876617695        0.73640321687064        2.60612732139622
O           -2.33962299958522        0.88423586075387        3.64413884356852
C           -3.67239337376623        0.49766362802291        0.12980798943584
O           -4.20411366702035        1.78569552685504       -0.04104971082625
C           -3.08456369646731       -0.03660437313941       -1.18369999654743
O           -4.07107369126990       -0.14399961518304       -2.18245637887622
C           -2.49907379341585       -1.42850832116057       -0.93287360159065
O           -1.93222220072718       -1.98767875813452       -2.08025635509202
C            1.65458666862011       -1.06016025405014       -1.38202421885065
O            1.23384686090542       -2.31341437742460       -1.85252847837320
C            3.18262448233412       -1.02794038774699       -1.24143244005864
O            3.72124187419138       -1.00445011117100       -2.53669034639315
H            5.29519771411549        1.33398103473084        1.37004422939428
H            5.34884676605943        2.15728953355185       -0.21514498182512
H            6.67714293003432        1.06183135924939        0.27248816526983
H            3.33352340402632        1.12557607430568       -0.95674491072430
H            1.34268746787597        1.26522661178502        0.30346922962735
H            1.53389382325775       -0.55644750667096        2.74460063539088
H            0.01166959343284        0.22280121560479        2.23567009391806
H            2.36144674083412        1.59153270261326        2.96237104218334
H            0.98967748910943       -1.75793963671880        0.52785941967024
H           -1.02766389430656       -2.30242278949327        0.39597610994418
H           -1.84049850182486        1.20255250593000        1.04204643784043
H           -3.97522698101862       -0.07455062395187        2.82454292794363
H           -3.81592112740814        1.67952936038992        2.54221225245781
H           -1.90762230156003        0.03288290846680        3.79704060895456
H           -4.52408199705521       -0.13413021951945        0.40827936541359
H           -3.48911337205065        2.41636300824154       -0.21506984882912
H           -2.26956546078120        0.62171002216034       -1.52461697615521
H           -4.63798036788991        0.64163654795982       -2.14081089598369
H           -3.29775289640675       -2.08020071733294       -0.54149790727604
H           -2.55792808347674       -1.86437267981584       -2.81250145636637
H            1.35221010953399       -0.26378013541194       -2.07763064354178
H            1.62089361584736       -2.46344643143663       -2.72841281903675
H            3.50827783704293       -1.92420418772890       -0.69300459393180
H            4.68863402857727       -0.98585610070482       -2.48045466523789
