48
 energy: -84.852888590783 gnorm: 0.000803625788 xtb: 6.7.1 (edcfbbe)
C            5.62743063143879        0.92812346841710        0.57998837235750
O            4.95383015872150       -0.14121205719501       -0.07900439055160
C            3.61971260134679        0.09804249678345       -0.33935980806391
O            2.92781235999944        0.13092095198079        0.89136479642906
C            1.53299032490283        0.32489095518183        0.79185364147287
C            0.99153419444031        0.31658400733941        2.22612754569195
O            1.09406237630598       -0.98510566627789        2.75138284503247
C            0.87674775726008       -0.77489827280479       -0.05632156909821
O           -0.47861554062101       -0.44783149994817       -0.33455410572094
C           -1.47861365516851       -1.32481320109566        0.11075132113325
O           -2.08490605114098       -0.87240094956163        1.28645817957167
C           -2.76869244550808        0.37262005605229        1.13331756879970
C           -3.32133662547661        0.77551371071075        2.50969811020925
O           -4.68430092510569        0.42606452678890        2.60939392820523
C           -3.87742781467224        0.24112926130916        0.07439293359425
O           -4.55256029533518        1.45465219062819       -0.13900085353361
C           -3.24319197718522       -0.18768126661576       -1.25200094610395
O           -4.20993286590888       -0.40444475713990       -2.25011282677174
C           -2.49710824179418       -1.50352795117346       -1.02770404217082
O           -1.79875805877634       -1.92566941860941       -2.16858045052360
C            1.58407593673464       -0.90090877083622       -1.41408447869434
O            1.14668018195378       -2.03145031519560       -2.12555241477343
C            3.10253532859432       -1.02315706482027       -1.24760284628421
O            3.75212076453662       -0.90710153026393       -2.48359021557896
H            5.18353413559818        1.11196478575980        1.55962087892036
H            5.57988769445635        1.83643873894027       -0.02726686210760
H            6.65619184394632        0.59681583983995        0.68414729212347
H            3.48416339139562        1.07028119816529       -0.86111979576055
H            1.32163159151963        1.29874030032601        0.32155992786563
H            1.58725393988707        1.02717090294704        2.80604207882333
H           -0.05791826611054        0.63660127823653        2.20654438499949
H            1.08891021376348       -0.94442030981847        3.71757018676557
H            0.94938961482059       -1.72489946132334        0.48413705277223
H           -1.04719395819175       -2.29946532963855        0.37335255348786
H           -2.04911028266137        1.12784861359363        0.78687998965989
H           -2.72202640455296        0.25039784450492        3.25959559154392
H           -3.20212508784321        1.85851705957421        2.63889086629819
H           -4.96552846836680        0.50041504294219        3.53155238076933
H           -4.57648272700371       -0.54296112318215        0.39585725794961
H           -5.12349967804519        1.62437797890323        0.62564198268007
H           -2.52533769774303        0.58211398957480       -1.57347708205107
H           -4.78345453361090        0.37553535310364       -2.29077377539567
H           -3.22750609375815       -2.26740548540772       -0.72088775369973
H           -2.41312999870628       -1.89958838332290       -2.92004977008252
H            1.36996274812917        0.01485572829157       -1.98929716195381
H            0.17603827186741       -1.99966275992392       -2.21753962968962
H            3.33917218914332       -1.98240372443166       -0.76625204843560
H            3.40689644394891       -1.59949597983838       -3.06976583617187
