48
 energy: -84.850384050459 gnorm: 0.000566194504 xtb: 6.7.1 (edcfbbe)
C            5.58552882662585        1.09363559870536        0.35936182873763
O            4.93925261407867       -0.01209391417766       -0.26750442229667
C            3.57063928242863        0.12227655034727       -0.40787438695902
O            2.97147130403574        0.11230655191148        0.87026645493196
C            1.56419917997397        0.25601470479586        0.88517488952273
C            1.22619946259207        0.19351948779636        2.39047722563928
O           -0.08869792082061        0.52886421364822        2.72166553157810
C            0.87642333125495       -0.84059679322299        0.04298850205609
O           -0.48147432434900       -0.52099771376011       -0.23097430686358
C           -1.48893225313324       -1.38687769988508        0.22003127958532
O           -2.08419654845427       -0.89951260047163        1.39270946114589
C           -2.73645830585100        0.36900314715079        1.22520496168842
C           -3.30837910186516        0.74598124169813        2.60770032239196
O           -2.72057501239002        1.89498682504136        3.15641349313208
C           -3.79946545972440        0.33060184067746        0.11303500416536
O           -4.28524461432809        1.61881580912480       -0.16166524239332
C           -3.17922147722292       -0.21046555496351       -1.19215020772917
O           -4.10276874770108       -0.27675605656964       -2.24079823002533
C           -2.53273061116403       -1.57630161039873       -0.89095843743228
O           -1.98238658670935       -2.19632617338664       -2.01620319035957
C            1.54566345728040       -0.95705102942434       -1.33901036288725
O            0.98164250376782       -2.06541785379127       -1.99149526649985
C            3.06499738537215       -1.07213423645487       -1.22646629808228
O            3.58725759870590       -1.08534104979332       -2.52717530243641
H            5.21290882143501        1.22691000439775        1.37536717226213
H            5.41893175032513        2.00602230674602       -0.21979164236996
H            6.64130514080654        0.84029288113322        0.37215819565045
H            3.31437360974069        1.06996818911432       -0.92758833062614
H            1.27119932982177        1.23280783738600        0.46998348629271
H            1.86670029996598        0.92161866338553        2.89353487680897
H            1.49080365143733       -0.80687410338049        2.75332244331832
H           -0.69032955870764       -0.16705871857303        2.39909635647003
H            0.95092648850959       -1.80978349053045        0.55078653417792
H           -1.06857881907107       -2.36556676421350        0.49148330610606
H           -1.99044209832690        1.11970740594271        0.92874370493716
H           -3.17705468732658       -0.12182724657960        3.26503187062923
H           -4.37635201041075        0.96379692596986        2.53966847809846
H           -1.77225258107808        1.73716205202445        3.29152442558485
H           -4.62329580489442       -0.33715106981943        0.41781625315115
H           -4.57202770728642        2.05166705522568        0.65605700924837
H           -2.41235244244614        0.49231200017089       -1.53301792699431
H           -4.79499535298604       -0.92187233485670       -2.03463252252675
H           -3.30638911440831       -2.25906866360764       -0.51605720410454
H           -1.08075916489547       -1.86430448102472       -2.17034971337034
H            1.31599886587035       -0.03811600805500       -1.90262339625309
H            1.49699092012012       -2.23849183522038       -2.79531385541660
H            3.33287742785370       -1.98929844898327       -0.68196173641985
H            4.55498803639355       -1.10748187131643       -2.48450500491196
