48
 energy: -84.852311755932 gnorm: 0.000361167302 xtb: 6.7.1 (edcfbbe)
C            5.67566842480378        0.68212059026818        0.59388531663720
O            4.95189107379930       -0.29162645424457       -0.15469264841220
C            3.63015389844085        0.03267472254975       -0.39943008698480
O            2.92439096306153        0.08725096871974        0.82177274319914
C            1.55340832256693        0.39930103346578        0.66731423658604
C            0.95087012666793        0.57118071920643        2.07854676419863
O            0.56920951413633       -0.62436430279643        2.70424493017625
C            0.86705254983201       -0.69860032202494       -0.16462618050251
O           -0.50175959537685       -0.39835545625086       -0.38076311226619
C           -1.45022580770743       -1.31131218395579        0.10119521939026
O           -1.99500080585134       -0.87515276234960        1.32102434763719
C           -2.68851052633269        0.36829766470609        1.23975553855667
C           -3.23305576814390        0.62206254271408        2.64983094115124
O           -3.81373096355909        1.90408194617378        2.69663019467307
C           -3.80453800749062        0.35151964558420        0.17931888507233
O           -4.34641639326697        1.63268619665264       -0.00715918997048
C           -3.24147913232296       -0.12816711461667       -1.17437050873888
O           -4.21771970658519       -0.17829708720132       -2.17589828894457
C           -2.55029969569638       -1.48915048214395       -0.95845786036739
O           -2.04364242130625       -2.05247745156310       -2.13284781303448
C            1.56027108775415       -0.81211916004866       -1.52774409824005
O            0.95327034526923       -1.85606336163140       -2.24329763679629
C            3.05798283784947       -1.05557723882450       -1.32265656608750
O            3.66967094476754       -1.03869070504295       -2.58408732197319
H            5.24004488611053        0.80005302780888        1.58646970596296
H            5.67014869449661        1.64172125918657        0.06969015491642
H            6.68756310861788        0.29497001062484        0.66643661585985
H            3.55071069664374        1.02105137825739       -0.90386495771811
H            1.45809235980521        1.35564021219737        0.12840948280408
H            1.73000165613942        1.00926165909252        2.70641706282126
H            0.10713033639020        1.26451519339001        2.01276811064989
H           -0.30385948492544       -0.89748677965065        2.37284674861267
H            0.97426250002956       -1.65463989759358        0.36204136592805
H           -0.99001744660425       -2.28421365140432        0.31644560771686
H           -1.98934680778342        1.16971134427600        0.96196237108958
H           -2.39842575892277        0.53733410114306        3.35525487502748
H           -3.96960212581780       -0.15704777562389        2.88150914606983
H           -4.12595351418756        2.08510747047436        3.59496382410076
H           -4.59330764628095       -0.35211150693623        0.50059658825155
H           -4.47508258024299        2.04643433938865        0.86559283108421
H           -2.50788689728696        0.60272908545699       -1.52917893653673
H           -4.89809830271983       -0.82711127525158       -1.94392240041451
H           -3.28610844796159       -2.20596680637326       -0.57229445928367
H           -1.17538322753620       -1.66507086500365       -2.33662712832602
H            1.43170657270536        0.13740985574253       -2.07130417327987
H            1.48669200210079       -2.03554797764764       -3.03365374859531
H            3.20495148723998       -2.02467609927135       -0.82392119794710
H            4.62132768700240       -1.18947923322579       -2.48101135759842
