48
 energy: -84.737284677603 gnorm: 0.000165958876 xtb: 6.7.1 (edcfbbe)
C            5.52022926452551        1.31204888683893        0.28100149085331
O            4.97266549898885        0.18384349967470       -0.39836397836534
C            3.58680526605268        0.16534476875178       -0.45310821373975
O            3.06572656272435        0.08468207482308        0.84370730352541
C            1.65361669473528        0.20329853023026        0.92429211187956
C            1.42199010902749        0.12590709249012        2.42964748547088
O           -0.04660233643448        0.43366819880174        2.75052119548380
C            0.95355030320854       -0.86825540198568        0.02615341230730
O           -0.37477951844712       -0.43746593242904       -0.29829822718560
C           -1.44239949663092       -1.24359149065858        0.09518628937673
O           -2.04193416454487       -0.73553729331691        1.26519642627969
C           -2.79148274508342        0.48552943150517        1.11500047849384
C           -3.43645701552630        0.76857229608519        2.48454339720122
O           -4.46205893180264       -0.14082616358030        2.79105138172753
C           -3.85339810872830        0.37322107714653        0.00955166371788
O           -4.47000197102496        1.61385396654383       -0.23485705649260
C           -3.17170373743020       -0.06458543959202       -1.29036606948203
O           -4.10255350475866       -0.26140656872725       -2.32497449654475
C           -2.46592635856541       -1.39710329928305       -1.04067718252715
O           -1.80281036244400       -1.87169188673182       -2.17480123644631
C            1.64845482570581       -1.15297113988433       -1.31752979619970
O            1.23313534540214       -2.43291382400720       -1.72899602969860
C            3.17576198746419       -1.07836832350285       -1.24615163109200
O            3.66450638196831       -1.05765055275363       -2.56233550047574
H            5.16253483863654        1.34173232141589        1.31068987859776
H            5.24065183876920        2.23379336552552       -0.23717114996002
H            6.59622548849470        1.16945579591621        0.25156749045151
H            3.20085969666198        1.08102370242873       -0.95577200465572
H            1.35592258948636        1.18871641872503        0.51580445671830
H            1.51417359380054       -0.93926450704505        2.71554563714860
H           -0.71526629693148       -0.05794939684537        2.19799897562703
H           -0.13532666408057        1.39846599676871        2.63493745020669
H            0.91754825403975       -1.82170062415740        0.57045464394036
H           -1.08145815402859       -2.24466984959360        0.36873011928993
H           -2.11554165226692        1.30401423847443        0.83454458372961
H           -2.66509094449754        0.75350340455022        3.26092008871821
H           -3.89694734673103        1.75724171773995        2.46188694563732
H           -4.07243013137140       -1.01013766340893        2.95582564757351
H           -4.59541369985286       -0.38690103555982        0.28823697430789
H           -5.14721393470892        1.78189017000908        0.43507860700310
H           -2.42517905585714        0.68927872999370       -1.58253182003922
H           -4.63218226507460        0.54537495451381       -2.41458470988290
H           -3.22271146898128       -2.12791003642836       -0.70813888109515
H           -2.41401197209454       -1.80230137509823       -2.92614199379874
H            1.30700642800767       -0.39148039209924       -2.03560848606932
H            1.61154799339597       -2.61417439412696       -2.60222035083876
H            3.55580256504024       -1.95304226680091       -0.69644552908878
H            4.62615830829544       -0.93897781772523       -2.53696969720381
