48
 energy: -84.850544678415 gnorm: 0.000554837445 xtb: 6.7.1 (edcfbbe)
C            5.72481880836170        0.77416189147091        0.64229125263339
O            5.02406447642692       -0.21165321136740       -0.11272047866347
C            3.69149878964495        0.07847930720032       -0.34343095425749
O            2.99743132176040        0.09382826605470        0.88406067068484
C            1.62267831628056        0.38465528683622        0.73284981918048
C            1.01689647361397        0.55613353226231        2.14359417785126
O            0.65247961915184       -0.63830140934410        2.78031245021430
C            0.96116225539917       -0.72985007391966       -0.09093249932217
O           -0.41299440857507       -0.44604052638209       -0.31279990240400
C           -1.34812238476944       -1.37054969068047        0.17252985179621
O           -1.90063834532448       -0.94235479950605        1.38629350369366
C           -2.64214727247870        0.27404558723417        1.30648957185038
C           -3.19882099773233        0.55135081316751        2.70454761709161
O           -4.10834964627221       -0.46844168228834        3.04255956690444
C           -3.77883996901688        0.18336091801480        0.26869382886443
O           -4.48993153585591        1.38800986484789        0.17739101328985
C           -3.19833642102474       -0.25131547295305       -1.08208167711427
O           -4.16614853739433       -0.36605357910291       -2.09426981546419
C           -2.43532514893708       -1.57076477785757       -0.89423408868031
O           -1.81196569775366       -1.98703483921611       -2.08091135654719
C            1.63899262040469       -0.88645400423297       -1.46329092810140
O            1.18452498454252       -2.04876239852428       -2.10586312760346
C            3.15845732980422       -0.99760154750608       -1.30866669990807
O            3.74190176133100       -0.83526661438460       -2.57260017061484
H            5.28880559792122        0.87328267373446        1.63697063156184
H            5.69415434126916        1.73751019214545        0.12548421511612
H            6.74625978905026        0.41182609244628        0.70960280489689
H            3.58152906346811        1.07514497244123       -0.82651362091461
H            1.51422687820711        1.33675565027159        0.18772471294745
H            1.79019474192614        1.01082749057982        2.76707606525521
H            0.16219210476883        1.23626542289655        2.07454985554203
H           -0.22001704099882       -0.92511789297929        2.45806672924375
H            1.07987224927227       -1.67342358903459        0.45691991103613
H           -0.87230759680950       -2.33468616348243        0.39085523298957
H           -1.96420510176171        1.08959725561771        1.01524339684279
H           -2.36139508068824        0.57916975837047        3.41119071144081
H           -3.70006046189276        1.52693248690879        2.68055380387194
H           -4.41010074403631       -0.33531632233758        3.95188315865974
H           -4.50089862212494       -0.56091776489531        0.62482537370189
H           -3.95147993181017        2.05688022363782       -0.27054300341904
H           -2.48368634529509        0.50054448199097       -1.44018357908099
H           -4.97369258803316       -0.76778817765379       -1.74205346719672
H           -3.12576369175496       -2.34747116568047       -0.52923158333217
H           -2.43521870024129       -1.84397971013721       -2.81289933381982
H            1.41712508660378        0.00183178382997       -2.07388176733800
H            0.21736372532519       -1.99855407452348       -2.22057243712543
H            3.39259011692479       -1.98401480346911       -0.88610063495000
H            4.69083483293674       -1.02102263696707       -2.50790484744848
