48
 energy: -84.855398842272 gnorm: 0.000637751797 xtb: 6.7.1 (edcfbbe)
C            5.70719927071891        0.96658655977546        0.52614861543064
O            5.02994035191351       -0.09107082415061       -0.14958668788879
C            3.68463098679911        0.14242380289064       -0.37340948678845
O            3.01133960867903        0.18701012523823        0.86388257749047
C            1.63027063023043        0.45314799743756        0.73389852946068
C            1.07269694281444        0.65425256386529        2.14345651438698
O            1.25940224199636        2.00438556724504        2.49815489589023
C            0.96236923364450       -0.69902848024653       -0.03392232810064
O           -0.40521399331178       -0.41931554661985       -0.29087936295584
C           -1.37594142092622       -1.29258511626375        0.21938799165428
O           -1.96737210434719       -0.81044116353136        1.38999452504200
C           -2.63720417231961        0.44352064726917        1.23520211875130
C           -3.24166443572710        0.78743795197148        2.60448369962138
O           -2.27507948729267        0.81062206120334        3.62136655736216
C           -3.72187969365788        0.36984869500068        0.15080770918975
O           -4.35197521188019        1.60677081449624       -0.05569891691570
C           -3.12265729712474       -0.16932134009783       -1.15822595257138
O           -4.11619724535372       -0.38584661681982       -2.13125169874312
C           -2.42938840487067       -1.50557768843072       -0.88131576644989
O           -1.77385627081270       -2.01199149914733       -2.01269844936220
C            1.64091872172046       -0.92707856910400       -1.39903201842823
O            1.19890118609825       -2.13139351380362       -1.96840692105868
C            3.16453970053466       -1.00136130754992       -1.26406536614873
O            3.72191419790498       -0.90681283418234       -2.54649430892090
H            5.25870608484149        1.14255626676640        1.50461004370120
H            5.66370568811740        1.88281149122845       -0.06931313059982
H            6.73411825309157        0.62996611206790        0.63132146761342
H            3.53243487493873        1.10844775829102       -0.90262544966047
H            1.48393674010143        1.38671913851881        0.16731048800971
H            1.62364974073425       -0.01174258161109        2.81744878747614
H            0.00950337856549        0.39640457437001        2.15678544320485
H            0.92939852043820        2.14787840188096        3.39690841665964
H            1.06116632537314       -1.61835755893450        0.55756330975236
H           -0.93128317547614       -2.25680667336723        0.49584765075650
H           -1.89362503039242        1.20336698119325        0.95237407089398
H           -4.02941771330371        0.06101443000377        2.83287000149393
H           -3.67842630352856        1.78603062399540        2.56222272985379
H           -1.95041945378263       -0.09176966315407        3.74886754975968
H           -4.51662911078806       -0.31206928486522        0.47527289459453
H           -3.69040092936028        2.27979351173165       -0.27526572208081
H           -2.36627590877708        0.53705113351584       -1.53677018352235
H           -4.73200647768017        0.36278677242824       -2.12011913688861
H           -3.17779249694851       -2.22382699243737       -0.51485563440736
H           -2.40494279782760       -2.01096775615421       -2.74979316166034
H            1.39727895347540       -0.07882195879479       -2.05605907333020
H            0.23361125881157       -2.08901441901382       -2.10299227109047
H            3.42544505871156       -1.95515220288418       -0.78615116722561
H            4.67538219574351       -1.07074142560108       -2.48987636664016
