48
 energy: -84.854977840349 gnorm: 0.000519027057 xtb: 6.7.1 (edcfbbe)
C            5.55982614657336        0.95222276680185        0.63055686395068
O            4.91750863135911       -0.09649515277499       -0.09037289621743
C            3.57509212772027        0.10766894478627       -0.33666036897530
O            2.87426828648318        0.11088511039582        0.89251665305021
C            1.47629882990857        0.29388862599170        0.77613393235609
C            0.89115458156152        0.29347953262663        2.20444286609409
O            0.38027025212365        1.53804671924634        2.59979098585569
C            0.85054766448911       -0.81854273665490       -0.08342096179844
O           -0.51256845849884       -0.52419052217443       -0.33205830917391
C           -1.48201036404194       -1.43332358368692        0.11998267558707
O           -2.05825743481910       -0.98943207120126        1.31859853948283
C           -2.71445569433819        0.27646002886148        1.20187794291740
C           -3.20672371064589        0.67703706385296        2.60197621460324
O           -2.51663158828885        1.76448308057955        3.15588275511595
C           -3.84659750348965        0.18702096981135        0.16985162956753
O           -4.45935045481565        1.44367838865115        0.06626299977953
C           -3.26677284461491       -0.26759238199537       -1.17699844289779
O           -4.32649767305664       -0.38806181372453       -2.09556820871851
C           -2.53792010646095       -1.60464007541577       -0.98139309939268
O           -1.98365548728736       -2.07411735759062       -2.18154803358096
C            1.56110828109024       -0.88374728164951       -1.44149612047967
O            1.02249747455046       -1.95744060494848       -2.17061933041361
C            3.07722145986771       -1.02906183708923       -1.24478139645200
O            3.73591880273759       -1.08301513003065       -2.47833760367793
H            5.14167645903414        1.03866182181540        1.63403602735549
H            5.45053858275029        1.90185345429183        0.09924912124925
H            6.60602914344117        0.66613782567536        0.68000690701594
H            3.40873060952255        1.08829870820382       -0.83868425524795
H            1.25646504354450        1.25696762880821        0.28943885738311
H            1.67646481209827       -0.05494078396310        2.88323761705704
H            0.04809833567906       -0.39874889769604        2.25338602816766
H            1.10199847650125        2.16488002969791        2.75066601187347
H            0.95746202077327       -1.78370918124712        0.42364716859735
H           -1.02956405691883       -2.40555372047898        0.35616800149937
H           -1.99575992362347        1.02982200813202        0.85161148165088
H           -3.12868322910967       -0.20947904308655        3.24500962776700
H           -4.24905642516615        0.99416769696542        2.54472053476859
H           -1.55624782463472        1.61461515567058        3.10727762661023
H           -4.57554405013817       -0.56978051506337        0.50335043204976
H           -5.07901535527592        1.41469874918259       -0.67952170575015
H           -2.54510635493065        0.48646923532542       -1.52822339851380
H           -4.01136854026126       -0.89698185034256       -2.85802744946909
H           -3.26929357741588       -2.35315347261506       -0.65153256437904
H           -1.04973109979501       -1.80605880592329       -2.24786854300450
H            1.35591522884210        0.06005969589986       -1.97526211644699
H            1.65121500785232       -2.20694350025386       -2.86800591561157
H            3.29756752417073       -1.97880580886389       -0.74655699799855
H            3.77790597136955       -0.20493408026852       -2.88601482878050
