48
 energy: -84.851054993249 gnorm: 0.000530401836 xtb: 6.7.1 (edcfbbe)
C            5.66678472745422        1.03424996949337        0.43544125998639
O            4.98901688831077       -0.04656946477830       -0.20098805818319
C            3.63650107097354        0.14977680242224       -0.38955250718944
O            2.99130147765192        0.13650320704643        0.86898440296878
C            1.58993943480001        0.33098398807357        0.82511986552704
C            1.10348885180073        0.24225380338449        2.28061751334473
O            1.45406960156782       -0.97823758251883        2.87285068448033
C            0.90523054106540       -0.73624492031299       -0.04504650535288
O           -0.45350053737463       -0.39550769488899       -0.27251841926251
C           -1.44992853425929       -1.28774158743020        0.17048647586349
O           -2.01453720876714       -0.87293263582239        1.37654257043290
C           -2.70401416078612        0.37299883982250        1.31614880961080
C           -3.36327103642518        0.58065869995329        2.68195357671660
O           -4.35362474235344       -0.40151343249187        2.86844841713410
C           -3.76080612967185        0.43691990946032        0.19224335459927
O           -4.30980951099207        1.72623612720480        0.12003911324994
C           -3.14444894548082       -0.01754993373564       -1.13534070567809
O           -4.13506649331143       -0.05240973386009       -2.13136155641777
C           -2.50750787217847       -1.40139159233067       -0.93423680198661
O           -1.98088131562627       -1.89943424290958       -2.13563011774854
C            1.57998659199159       -0.81230802526326       -1.42094994989352
O            0.99916956280537       -1.87258704843310       -2.13787657462682
C            3.09836514813695       -0.98348683329183       -1.27750866883729
O            3.71376041540274       -1.04874247173608       -2.53277465546533
H            5.27106364530508        1.20075405484459        1.43791924820550
H            5.56663764704791        1.94767255427944       -0.15781013848101
H            6.70775387970155        0.72980097388281        0.48513976128216
H            3.44127981264680        1.13226425171317       -0.87551662166407
H            1.35537839809783        1.32286519172910        0.41062644104944
H            1.52006912935312        1.08426897684657        2.84599929737675
H            0.01400521102023        0.29107070265721        2.30006105650959
H            2.41916640930149       -1.06168360835595        2.84958891505171
H            0.98056081002267       -1.70905049779420        0.45371830601002
H           -1.01865988009321       -2.27455135906601        0.38322438566904
H           -1.97211912341041        1.17832592503644        1.14585120087299
H           -2.58636599203518        0.50034465972942        3.45166670280816
H           -3.80387550615850        1.58490927711148        2.69345538027123
H           -4.73701590638662       -0.29787481392268        3.75056793079588
H           -4.59222664339645       -0.22792660347464        0.44710122187150
H           -3.70104335551105        2.31492873341824       -0.34990858308201
H           -2.34848871036282        0.69007395370911       -1.42685732435497
H           -3.82414912170874       -0.63849117721350       -2.84027941098904
H           -3.28471931231035       -2.10136073580609       -0.60449390095963
H           -1.02818971520812       -1.70272974413303       -2.19294660316049
H            1.37508643578246        0.13730452129032       -1.94523632689182
H            1.60682819763821       -2.13839410765930       -2.84779006653982
H            3.32205985499142       -1.93584612484398       -0.78639209203163
H            3.74091201207050       -0.17450217649409       -2.94977324333327
