48
 energy: -84.843939381367 gnorm: 0.000569295701 xtb: 6.7.1 (edcfbbe)
C            5.64038083499315        1.02008187873840        0.45848534773977
O            4.99265982719228       -0.07401124056317       -0.18598226684819
C            3.63695284811401        0.09306186855489       -0.37896183533065
O            2.99529200026247        0.11035119769850        0.88027069896287
C            1.60241479426297        0.34164947107425        0.83690080048828
C            1.18198309386683        0.33520809009798        2.32002467333842
O           -0.11553365731253        0.79672988843536        2.55768671049278
C            0.89226559580629       -0.72596147297133       -0.01741435983409
O           -0.44048664510959       -0.32989882280816       -0.34116105382576
C           -1.50076821512058       -1.15119431932944        0.08017042446069
O           -2.12935344588250       -0.67549376662321        1.23542673741105
C           -2.88281406574712        0.52750824078984        1.07160417303201
C           -3.47604113958828        0.85255985380296        2.45487324210936
O           -4.16305828550267        2.07868389642761        2.46887503330673
C           -3.98892205120197        0.36747611483887        0.01620683753068
O           -4.62724374429378        1.59357807120202       -0.22404095940499
C           -3.38454330765870       -0.10247517462687       -1.31175201327734
O           -4.44166967245030       -0.42165021665552       -2.17994315480199
C           -2.47347288361896       -1.32046379713422       -1.11065172300498
O           -1.74550079661199       -1.59489088928771       -2.28356020559459
C            1.59849397795242       -0.97626944343397       -1.36857562154986
O            1.14326079935185       -2.17164176477182       -1.94822177212238
C            3.12315310925027       -1.08655843224809       -1.22390674746664
O            3.76795128444431       -1.17223576246966       -2.45888001770393
H            5.24174401364621        1.16166537685644        1.46416689483313
H            5.51025477190910        1.93599418592806       -0.12524664980148
H            6.69007986483128        0.74608697830577        0.50128550354832
H            3.42607399906532        1.05462863914154       -0.89907488396202
H            1.39172773066048        1.32972618980315        0.39572746002951
H            1.85454293044710        1.01423985065185        2.84861030442328
H            1.33286312127359       -0.67679636133166        2.71514686374080
H           -0.75100938963706        0.14591151479446        2.21043254789093
H            0.88498656371606       -1.67468785515094        0.53495224365222
H           -1.11703042032406       -2.14075946151342        0.36569716514082
H           -2.21471509013362        1.33923305882340        0.74861026798195
H           -2.67109022765975        0.83660665727442        3.19489163492880
H           -4.20619374676557        0.08285307675446        2.71477480168282
H           -3.52577473290992        2.80643317098971        2.49553399710656
H           -4.71312653132836       -0.39217133890204        0.34914245961293
H           -4.95043625772449        1.94190236827550        0.62755463758794
H           -2.79350801951912        0.73508543963824       -1.71795462663065
H           -4.08398648784231       -0.77736664952349       -3.00778663348579
H           -3.09991729460521       -2.19764500841087       -0.92211149006263
H           -1.35288661696822       -0.76499782774631       -2.59895095273548
H            1.37259314644348       -0.11765165496316       -2.02284688523774
H            0.18037601769957       -2.13112863776600       -2.10500320893324
H            3.37313182028291       -2.01370868654194       -0.69997505965783
H            3.56044657972049       -0.39976449117087       -3.00670333215023
