48
 energy: -84.855281688892 gnorm: 0.000369633558 xtb: 6.7.1 (edcfbbe)
C            5.64675743686109        0.80653528184619        0.63738935588388
O            4.94759641681189       -0.23444474459701       -0.04158558694093
C            3.62112297021819        0.04544598824636       -0.31424149034388
O            2.89963585485983        0.13170589963497        0.89736469931819
C            1.52868743958908        0.41455524691051        0.70186196272322
C            0.88000782129598        0.66777676326788        2.07035617987138
O            0.19372461358725        1.89691838485000        2.02337082263290
C            0.87498692940772       -0.74034791391724       -0.08029046755853
O           -0.49610984432580       -0.48044974821418       -0.31162175007524
C           -1.44059262639168       -1.38550507853396        0.20537850040506
O           -2.00518585833634       -0.92015390832807        1.39668339163280
C           -2.64333983692533        0.34982296795669        1.26953794544415
C           -3.20322560886761        0.71779417270784        2.64239819287399
O           -2.16136157097834        1.19362522376378        3.46721495624208
C           -3.75540578380078        0.29858587000787        0.21106642965456
O           -4.36623563028318        1.55080906556516        0.03177998883008
C           -3.20762523561755       -0.24024782922708       -1.12380431585447
O           -4.24951329889831       -0.41045335913333       -2.05249414191254
C           -2.52032515179094       -1.59394359846865       -0.87617899317874
O           -1.97649662626882       -2.16704280479749       -2.02876832540501
C            1.58466202459933       -0.90371674787167       -1.43011105875827
O            1.01612613608275       -1.99928910021973       -2.09858431373208
C            3.08647374823095       -1.09485405073005       -1.19705308477588
O            3.71365509595627       -1.11274508288372       -2.45103858073569
H            5.18563142502366        1.00770965575266        1.60472952795904
H            5.64767642312363        1.71703034056364        0.03188214788238
H            6.65896448442216        0.43585061411445        0.76766569546874
H            3.52263391024766        1.00867808915462       -0.86046264434245
H            1.42070769078630        1.33857487022157        0.11124988915176
H            1.68442488307047        0.70521852299280        2.81623110788934
H            0.19625314231795       -0.14750504757985        2.32305709004289
H           -0.51436462862913        1.88164453992438        2.69284709985922
H            0.99543708443637       -1.66781362546856        0.49315445107161
H           -0.97494350282015       -2.34722202722993        0.45333385073474
H           -1.89269724094960        1.09382588696154        0.96771091525895
H           -3.65713239157188       -0.18248555738162        3.06987594182835
H           -3.96910979139121        1.48990457976330        2.50351385023137
H           -2.51274138526715        1.35488110547770        4.35436716361113
H           -4.55306021062568       -0.37228690528898        0.55076692433546
H           -3.69410090482136        2.20950966848133       -0.20131587864533
H           -2.45577269271206        0.46034164157346       -1.52309600615563
H           -4.82933509388293        0.36699561503612       -2.00354966422012
H           -3.27203350759292       -2.30080722102756       -0.50785063708426
H           -1.08579355520506       -1.80653912845960       -2.18562040720911
H            1.43772884999207        0.01336700101678       -2.02198515366134
H            1.56071791002399       -2.20090949393401       -2.87619556013136
H            3.25357837121131       -2.03902718083316       -0.65815360160654
H            4.66902431803434       -1.21925583032621       -2.32913945131784
