48
 energy: -84.853506229254 gnorm: 0.000616538215 xtb: 6.7.1 (edcfbbe)
C            5.69504524444750        0.93835948602019        0.61134323953079
O            5.04006825733499       -0.13025997062127       -0.06911801903331
C            3.70560902330509        0.09799423162893       -0.33731500204749
O            3.00360402274908        0.17266372095700        0.88595840009175
C            1.62229599073996        0.42502630636294        0.74657760655128
C            1.04298136752961        0.55428217989551        2.16193028232436
O            1.46233960279361        1.70998736939179        2.83380715625332
C            0.95560428280967       -0.71538872173781       -0.04145475567638
O           -0.40052966030520       -0.40622405800545       -0.33393157551827
C           -1.39685275131459       -1.26121499991946        0.15639356000497
O           -2.00140085034007       -0.75319789813726        1.31208275956795
C           -2.69060199573579        0.48033285301226        1.12043788429283
C           -3.27752530056047        0.84714639136259        2.48676730625869
O           -3.86889668208600        2.12317327678442        2.40211199464217
C           -3.77518135179966        0.36241231121155        0.03863041032435
O           -4.35262553539535        1.60545111277868       -0.27336987919619
C           -3.15380374254765       -0.18142452032293       -1.25528754426162
O           -4.13038976169542       -0.44193736452020       -2.23308953000394
C           -2.42784378780114       -1.49356713606486       -0.95974161843014
O           -1.74541074110836       -1.98773164978386       -2.08052519677263
C            1.66641448811635       -0.93147161937132       -1.39273501704208
O            1.20047776386392       -2.09161246853638       -2.02800532704656
C            3.18600763826203       -1.06476247698663       -1.20797781038784
O            3.86758677937578       -1.14303548801371       -2.42423580465022
H            5.22614050157383        1.11793440017089        1.58020896209862
H            5.66065812667643        1.84955894193449        0.00690538526044
H            6.72153263844197        0.60925631820723        0.73998940815884
H            3.57213734488231        1.06046789163357       -0.88247731537801
H            1.47085900875233        1.36387147055409        0.18718345813827
H            1.40887303156050       -0.28381431233220        2.75808287093471
H           -0.04977472900732        0.50361345995622        2.10108595837183
H            1.17167958384652        2.49896735726067        2.35348051521026
H            1.02388155943247       -1.64018272944671        0.54330758306474
H           -0.96689859204942       -2.22368362117649        0.46179430250832
H           -1.98291713862431        1.25820693649717        0.79953290876406
H           -2.46422815423934        0.82926611582754        3.22079666648479
H           -4.01563441078069        0.08421162552400        2.76313244440178
H           -4.19331635761239        2.38764763681244        3.27488942863297
H           -4.54961538905136       -0.34620298856983        0.37841241390171
H           -4.50095168661778        2.09755970442480        0.55337152315121
H           -2.42316533326630        0.55213195213482       -1.62849411827837
H           -4.67344090625417        0.35335256893905       -2.33988430698944
H           -3.16438269206004       -2.22847263258859       -0.60170992568264
H           -2.36705358986532       -2.00065413699875       -2.82624078928335
H            1.45824299661576       -0.04682694868181       -2.01884115945350
H            0.23120505028603       -2.04047416925106       -2.13213756440394
H            3.40782942122201       -2.00176682500085       -0.68883012661477
H            3.63041242196888       -0.39564186242597       -2.99429808543212
