48
 energy: -84.842875994461 gnorm: 0.000787779768 xtb: 6.7.1 (edcfbbe)
C            5.43963117874724        1.28351661483705        0.36442063877608
O            4.88753530204762        0.14869771187770       -0.29826923620601
C            3.50959949005661        0.16719790077746       -0.42359347369186
O            2.92086242203220        0.10347355687905        0.85429324571790
C            1.51247983388879        0.16613244569627        0.83055020009453
C            1.04246926754198        0.02425978922720        2.28199658943194
O            1.34147550885199       -1.27415001159094        2.73375387228040
C            0.86618615081785       -0.92164526275596       -0.05004921080609
O           -0.47690230024152       -0.53288927373227       -0.31175677146492
C           -1.50438256105253       -1.38270588291771        0.11088496787549
O           -2.07701335458026       -0.93687542686299        1.31328483323204
C           -2.66672321497752        0.35887265952765        1.24005465990256
C           -3.15783771107780        0.70228882996539        2.65835806527614
O           -3.99064798884278       -0.26378974334621        3.23946359676407
C           -3.78259320675403        0.42169910349954        0.17218814821385
O           -4.23529085745927        1.73759916912878       -0.02508785462080
C           -3.21418651268000       -0.07348439463926       -1.16525501465482
O           -4.16343526960316       -0.09390472729737       -2.19927801286352
C           -2.59472656965211       -1.46463028892036       -0.97232708901584
O           -2.05848968335355       -1.96521081433405       -2.16203208545264
C            1.57870465714760       -1.10650472473043       -1.39751485316993
O            1.17149793421626       -2.34338808504917       -1.92009086971081
C            3.10424198776371       -1.05740820438081       -1.25177783986828
O            3.65070251543703       -1.01482932362017       -2.54368945610208
H            5.07264055323195        1.34127068394451        1.38948918158914
H            5.18020143150634        2.19865053764424       -0.17499348456103
H            6.51416038621313        1.12787936547385        0.35347130812542
H            3.17027527919636        1.09546244162800       -0.93408740288159
H            1.19411654336275        1.14467921721006        0.43423097152204
H            1.56752257362987        0.77656734171718        2.88115621616241
H           -0.03781602532552        0.20418823035792        2.31521984285911
H            1.10039864727664       -1.34694260908794        3.66786549574109
H            0.89891242005526       -1.87784668973983        0.48329542949435
H           -1.11888985810110       -2.38675980654901        0.32260010071368
H           -1.90404438001376        1.09616836056360        0.94791749942699
H           -2.29124035892254        0.76242424831398        3.31880996153655
H           -3.64649618948762        1.68467198893684        2.63205815602901
H           -4.77381171523385       -0.41240871973498        2.69291014767869
H           -4.61149258539820       -0.24349527812713        0.45958923841770
H           -4.79573765839641        2.02366065937891        0.70987665771841
H           -2.43426941693032        0.61971314900739       -1.49644548236735
H           -4.96539387895521       -0.55352729827685       -1.90776014152885
H           -3.36832392335942       -2.15613311342227       -0.59201507500879
H           -2.58264465740978       -1.61152220136030       -2.90112628727820
H            1.26847270028014       -0.28675461741760       -2.06332626187536
H            1.59497234012925       -2.46805079158564       -2.78294950351236
H            3.44157052802333       -1.95063222180816       -0.70589318647594
H            4.61660322241788       -0.96312954356703       -2.47703632325776
