48
 energy: -84.746432203295 gnorm: 0.000487472478 xtb: 6.7.1 (edcfbbe)
C            5.57164067955961        0.68361515680676        0.89989085303624
O            4.87762905765937       -0.24499032291374        0.07336541403950
C            3.58775558594237        0.13791204915590       -0.26230688642886
O            2.78860712032039        0.15131273165362        0.88620148364016
C            1.40394488109156        0.55549630701289        0.62568859138662
C            0.63603510342117        0.86443817763942        1.88280459156341
O            0.34388689747150       -0.41526386286064        2.67054315603209
C            0.80778478422337       -0.55976518910707       -0.25834061420747
O           -0.56835290615670       -0.32337399608033       -0.48085413898705
C           -1.44749698948106       -1.31314676959133       -0.02595965254745
O           -1.97469518330670       -0.90191713605672        1.21781070599072
C           -2.61657259574284        0.37590500030295        1.11869604771777
C           -2.86629889835761        0.90905282143188        2.53387524754687
O           -1.95946085214803        1.92128843044638        2.88423075905012
C           -3.86354725922604        0.22199883892489        0.24190258959152
O           -4.63302306316955        1.39264234248508        0.16429024015082
C           -3.41627109804431       -0.23277720643475       -1.16474438982328
O           -4.52922874099381       -0.48422883739039       -1.98660856905553
C           -2.57749191902506       -1.51843258271642       -1.05547297022671
O           -2.05767291153173       -1.95364905137030       -2.27864209305024
C            1.56847187894519       -0.60516995199450       -1.58585587729168
O            1.01656796353457       -1.61893911598819       -2.38749154270628
C            3.05900408655749       -0.86518761965717       -1.30418100082567
O            3.80061036062735       -0.86166241418671       -2.49308584113061
H            5.03916998263255        0.83146558302742        1.84107707177180
H            5.68032574935212        1.64320714032063        0.38558294231444
H            6.54536629827594        0.23826349762935        1.07943339783482
H            3.58798231670110        1.16139417220293       -0.70768655270779
H            1.43850579154814        1.49234434902573        0.04940444684043
H            1.32802510432864        1.41143839500565        2.54183561686470
H            1.08506217071502       -1.05443817542086        2.68234994254930
H           -0.48083875991513       -0.79500065502878        2.26010284489511
H            0.95174577713735       -1.53128479362775        0.23017303361176
H           -0.94205596443672       -2.27090886993892        0.13965455858951
H           -1.92340493677087        1.06918425025809        0.62199602316728
H           -2.81396541081672        0.06915759751413        3.23861263988790
H           -3.86297597276923        1.35341271648409        2.59064542257036
H           -1.04218841219075        1.65318299571319        2.61085813024459
H           -4.52505537573092       -0.54144114878629        0.66657989344155
H           -4.06080767383699        2.14706378204173       -0.04103813385918
H           -2.78789597907010        0.55425026094723       -1.61504241032210
H           -5.18275965407171        0.21642687415181       -1.82864894891434
H           -3.23427951212091       -2.32229871198568       -0.70621506903643
H           -1.28171695893980       -1.41726496132965       -2.50884528012723
H            1.45784753112307        0.36981078161418       -2.09012439570189
H            1.64803490618167       -1.84247912174055       -3.08920844779646
H            3.17916329118886       -1.87188056064505       -0.88847874242685
H            3.92746070643585        0.04333884338667       -2.81355215789694
