48
 energy: -84.854441131570 gnorm: 0.000503751968 xtb: 6.7.1 (edcfbbe)
C            5.69818306383764        0.99965470820328        0.50098676532327
O            5.02741015498117       -0.11369702494295       -0.08342535704111
C            3.68347051885114        0.09034608722341       -0.32272495195023
O            3.00830949246335        0.08285773183107        0.91747589003866
C            1.61034676687755        0.28443360845888        0.83462269700895
C            1.09111148757581        0.20823133123402        2.27979232424623
O            1.37222362279737       -1.03780514070065        2.85992737157747
C            0.94136678541734       -0.78496417505958       -0.04301442230524
O           -0.39943074951358       -0.39631222897984       -0.32314002192863
C           -1.43299723008138       -1.25310848899524        0.09862922450143
O           -2.02983587885401       -0.82857504561799        1.28470617989414
C           -2.70059735168408        0.42316091122774        1.18817791815775
C           -3.15395305986619        0.81811152646240        2.59032560578264
O           -2.04486937595963        1.33831546963333        3.28595597550486
C           -3.87227839642305        0.29640078571741        0.20880297852519
O           -4.55887763779442        1.51734347548709        0.15056467338789
C           -3.31177071173101       -0.09083388698156       -1.16571116663105
O           -4.40356766876413       -0.27820973459449       -2.03450855465318
C           -2.44724146635786       -1.35350210748975       -1.06814060909534
O           -1.77077251390390       -1.59074550259791       -2.27881393801098
C            1.65858246742241       -0.95432528536661       -1.39119741095390
O            1.25859595972255       -2.13212588356493       -2.05068689384735
C            3.18226499752216       -1.03865122808437       -1.23013904707618
O            3.81893048917143       -0.90120519328415       -2.47061993313856
H            5.25672518480337        1.25108238014753        1.46684233741569
H            5.64754460830926        1.86435226705490       -0.16674491975911
H            6.72842247691428        0.68053280756015        0.62635065939616
H            3.51088565762102        1.06223400312563       -0.83052813370155
H            1.39350282088770        1.27482871287629        0.40705210640182
H            1.54916781002666        1.01882756626663        2.85767677609456
H            0.00690339348977        0.32624798707675        2.29854880938004
H            2.33367682336333       -1.15666419187528        2.86473187247466
H            0.96112497692692       -1.73930875316732        0.49731567853756
H           -1.03513560831574       -2.24956817343822        0.32895558835449
H           -2.00429964631019        1.19041701829301        0.82279425423625
H           -3.54742432590517       -0.07656047811290        3.08536282730704
H           -3.94207595820904        1.57326316906827        2.48941689530500
H           -2.30264526892187        1.52756948960522        4.19931995445511
H           -4.54056224982014       -0.50732593932506        0.55538279616282
H           -5.21371972578443        1.46338809193354       -0.56375877059397
H           -2.68208971447893        0.74318062731661       -1.51975511449220
H           -4.09515672494650       -0.67816170823908       -2.86137051658058
H           -3.09301727120157       -2.21987806434618       -0.89846783685927
H           -1.28182332440110       -0.78455385062781       -2.51046460327730
H            1.43353206248148       -0.07002530990897       -2.00883224437835
H            0.29249783105210       -2.14768069304536       -2.16712802847026
H            3.44413245869003       -1.99420856634724       -0.75595896594242
H            3.53842794652774       -1.63466809178519       -3.04055871270938
