48
 energy: -84.848335558948 gnorm: 0.000697895216 xtb: 6.7.1 (edcfbbe)
C            5.53383163754184        1.07663565261340        0.50376470506187
O            4.87102822169088       -0.00794644864126       -0.14089335292857
C            3.51921702135298        0.17948295729854       -0.36419332918774
O            2.83755901514718        0.22279893412035        0.87223749759209
C            1.43395354281183        0.37304465453566        0.75856441072739
C            0.86341842972476        0.41184532696144        2.18836900060389
O            0.68308590604362        1.71321852512973        2.67752982341339
C            0.81655301228176       -0.77531403830258       -0.06155552996238
O           -0.54933751560169       -0.50414170056850       -0.31835586630728
C           -1.51496192670932       -1.40496268842830        0.15905441061404
O           -2.10531339175538       -0.94291666018453        1.34009071423052
C           -2.75740269530062        0.31938320694780        1.20501631679192
C           -3.29150338046764        0.68611417151926        2.60014335419107
O           -4.11170298256390       -0.28937911568370        3.18597435808643
C           -3.84402303698760        0.29042093692150        0.10735425416324
O           -4.32829476111123        1.58477276380037       -0.15388431201890
C           -3.24158766859431       -0.24109367610346       -1.21123381405387
O           -4.19265954111603       -0.30735138024751       -2.23735040539602
C           -2.57248844106587       -1.60159902466360       -0.93999858432795
O           -2.02796359651643       -2.19058616881156       -2.08550706421774
C            1.52428571160177       -0.89067710864741       -1.41846090205548
O            0.99786509210159       -2.00314875133679       -2.09371922318213
C            3.03548402114327       -1.00602341000363       -1.21371598404778
O            3.63802912851145       -1.01706569780578       -2.47936137354582
H            5.16854752962047        1.19588561999935        1.52393501095074
H            5.38004152761513        2.00218733944423       -0.05766377528905
H            6.58623192890423        0.80763845447772        0.50895408623236
H            3.33478932441239        1.12786302613811       -0.91347026131562
H            1.19400392151575        1.31664225093840        0.24386720438658
H            1.53395874227454       -0.17002904274860        2.83083280957602
H           -0.12501020755847       -0.05110244902172        2.19688996817276
H            1.54428986480786        2.12743044755532        2.82960947873703
H            0.92920371563981       -1.72095863112160        0.48108575873157
H           -1.06065737043015       -2.37025995825804        0.41762693359780
H           -2.02234978529994        1.08294951543981        0.91203563899919
H           -2.43830411142797        0.78938181363493        3.27338810223409
H           -3.80498945055361        1.65315136531716        2.53646772129497
H           -4.89357107178493       -0.44628332336788        2.63911913632673
H           -4.66121044446584       -0.38421474886478        0.40294427760775
H           -4.93960937837741        1.86912805698556        0.53955110883026
H           -2.49125633062449        0.47500553403689       -1.56044500712645
H           -4.81625937658371       -1.02871733902697       -2.06655051877075
H           -3.32829627949444       -2.30461895136117       -0.56646959853074
H           -1.13600555647257       -1.83909354093599       -2.24503344247067
H            1.32087196496740        0.02556322880255       -1.99545665847179
H            1.55130487717915       -2.17625349852988       -2.87204840020954
H            3.26169405513064       -1.92854188478436       -0.65923462642916
H            4.60024910140249       -1.06607554977734       -2.37609502322324
