48
 energy: -84.855543735980 gnorm: 0.000483102659 xtb: 6.7.1 (edcfbbe)
C            5.66644655209699        0.96915059257428        0.41949061983226
O            4.97237508035018       -0.07868082464903       -0.25420991828268
C            3.61453277884369        0.13876320338140       -0.40535778007952
O            2.99534920298751        0.11392676526266        0.86070605527709
C            1.60468765611036        0.36155922089684        0.81605767241463
C            1.11677066918965        0.40160930323166        2.26586250089089
O            1.43280964934384        1.66267943333763        2.80660957869977
C            0.90277290748001       -0.73340340824453       -0.00701421081774
O           -0.46111083461500       -0.41212072915108       -0.22305620735399
C           -1.44339086671646       -1.29001457694543        0.26523737641937
O           -1.98776122290922       -0.82674237172712        1.46906106156001
C           -2.63731733115450        0.43991972031816        1.35813188593284
C           -3.14245038699946        0.82680008125838        2.75549605484304
O           -2.16885700619134        1.48020286799518        3.52863763995439
C           -3.77690837706020        0.38285306124830        0.33251747516456
O           -4.34056922006573        1.66426097133813        0.23440028783214
C           -3.21955666744753       -0.09412905066720       -1.01485026898475
O           -4.28893530528616       -0.18843232966797       -1.92522576742830
C           -2.52765027430513       -1.44957712030345       -0.81337662982338
O           -2.01850270231460       -1.96217926345530       -2.01371848032859
C            1.54804566149611       -0.83439619966036       -1.40863058836194
O            0.93587819537445       -1.84659287001949       -2.16211451753713
C            3.06546355113180       -0.99028869000236       -1.29643111448988
O            3.61956091110577       -0.94326867524400       -2.58136924244237
H            5.25997723100873        1.11271738530230        1.42116796370777
H            5.58527899096907        1.90023852129770       -0.14820689276715
H            6.70110612103404        0.64378174952275        0.46986899611500
H            3.42035609163008        1.11979517694323       -0.88883748268249
H            1.41121826761990        1.33818331668441        0.34748433528269
H            1.63147605342371       -0.39874480939926        2.81016202781515
H            0.03551852011232        0.22717798446325        2.29690682059617
H            1.22140146985128        1.65980264952468        3.75084606067968
H            0.99463218857505       -1.69159808191582        0.51831653521081
H           -1.01072713380224       -2.26930393947513        0.50834892291394
H           -1.91065446087783        1.18853821786329        1.01065089465781
H           -3.39649122816692       -0.08974574920800        3.29129157916624
H           -4.03610426046752        1.44737296475447        2.63961129241373
H           -2.05858367160826        2.38289876315242        3.19770229725608
H           -4.53340067640169       -0.34362249262658        0.66968805881860
H           -4.95650505366095        1.66533598861151       -0.51488027605073
H           -2.47699923605548        0.63516580837057       -1.37547711020178
H           -3.99675701365113       -0.71582225405698       -2.68412278444608
H           -3.27201486809736       -2.17157646541569       -0.45606246527145
H           -1.11446989453805       -1.63092740661352       -2.16851840039998
H            1.33215982899139        0.09612664960510       -1.94686186917409
H            1.36016092263221       -2.70074756167150       -1.99430163963626
H            3.30700997940944       -1.94256154056227       -0.79755505681449
H            4.58583620933411       -0.98555502407940       -2.51240323385706
