48
 energy: -84.846655167982 gnorm: 0.000650775316 xtb: 6.7.1 (edcfbbe)
C            5.52620520713042        1.30865582656824        0.45116101550011
O            4.98834102133659        0.18953472895205       -0.25046249829083
C            3.61750974320289        0.22788958407738       -0.41787969705582
O            2.99394353187584        0.16817822148739        0.84501713382673
C            1.58965984672709        0.30120013177362        0.79877316479615
C            1.10375591005496        0.26655296318619        2.25696549810526
O            1.49960534230366        1.39797334124695        2.98578157127750
C            0.93807720441569       -0.81396085054205       -0.04364272688403
O           -0.40763915682546       -0.45084029099401       -0.32391981673930
C           -1.42846555853574       -1.29602842481721        0.12283079573384
O           -2.00929579872882       -0.81583132695607        1.30625715865327
C           -2.59564749998576        0.48012256818175        1.18261404581092
C           -3.05695511760470        0.87893499433263        2.58463628232876
O           -1.93009420348777        1.28248822343303        3.32598924872513
C           -3.73379608536033        0.45511594183709        0.14591988223106
O           -4.26109837635469        1.73272780101769       -0.11738811299573
C           -3.16941496283180       -0.06491712870157       -1.18404875647873
O           -4.18157479494337       -0.22836703909099       -2.14656318270560
C           -2.51051080336076       -1.42844077699282       -0.96503415344268
O           -1.93454424415165       -1.93321457477611       -2.13285328016277
C            1.65792219650001       -1.02686397731867       -1.38545644726005
O            1.24854097302992       -2.27309066488635       -1.88660753221376
C            3.19309951382946       -0.98489632733543       -1.25613413128579
O            3.79524259021889       -1.02546336313261       -2.52072019661652
H            5.09838977999384        1.37188598327419        1.45277694722525
H            5.32242406819286        2.23269642249320       -0.09782361200076
H            6.59520823986308        1.12695848091953        0.50313836048747
H            3.30772852727249        1.17083475703278       -0.92541524637222
H            1.32750796990651        1.26648193166583        0.33364270724922
H            1.57955365566985       -0.58615247747878        2.74580524115330
H            0.01762340315401        0.14191198654691        2.28011028332242
H            0.95314954481253        2.15460960944430        2.73100286894057
H            0.97269790566719       -1.75879702741413        0.51048815855887
H           -1.03508431461423       -2.29011928843125        0.36464351848286
H           -1.83316880337599        1.19368135535420        0.84134681955816
H           -3.54161488349562        0.00899874950351        3.03894127525762
H           -3.76886974663055        1.70934358658929        2.50974021090552
H           -2.17108042612313        1.35668585943876        4.26001920553947
H           -4.51837874179432       -0.23646301159847        0.48383881018293
H           -4.85235817132721        2.01400775317124        0.59378839871337
H           -2.40651134601242        0.64140835731086       -1.54275986835603
H           -4.64889266181122        0.61521844030077       -2.24339425565824
H           -3.27566630622320       -2.12414897894911       -0.58158216228279
H           -2.58664685423238       -1.84790169052413       -2.84739957668197
H            1.33071626164433       -0.22025043470141       -2.06218367807007
H            1.74708086572520       -2.46162445718377       -2.69760990762340
H            3.53559766741090       -1.88360113902309       -0.73284097650396
H            3.69639788179893       -0.17325440581485       -2.97122168807566
