48
 energy: -84.853331810136 gnorm: 0.000544636619 xtb: 6.7.1 (edcfbbe)
C            5.64673838144148        0.98701078509519        0.49553976369930
O            4.98827651914419       -0.08887410581286       -0.16975147042698
C            3.63111853423161        0.10067661091711       -0.35918580491054
O            2.98444979615534        0.09196105345848        0.89322590577054
C            1.59450879840436        0.32751878223030        0.80701319748804
C            1.06570302312576        0.38551852767229        2.24313832025973
O            1.21531252187825        1.69772112838784        2.73258879595861
C            0.91866303928643       -0.77958727029458       -0.01702672440732
O           -0.43165666906355       -0.43827187146129       -0.29177533739552
C           -1.44321240358079       -1.28709270412513        0.17055756634459
O           -2.03446580240177       -0.80193285291939        1.34570971048604
C           -2.67569149824668        0.46270745800352        1.18627683563039
C           -3.26966894543989        0.81750119605695        2.55945789356115
O           -3.84688237574612        2.09789597020123        2.58317405160695
C           -3.76793988588471        0.41295121499382        0.09979023883779
O           -4.33111937452342        1.67686110474182       -0.12947909844284
C           -3.15707098352579       -0.09358070759339       -1.21190081752519
O           -4.08112858883719       -0.20413475713528       -2.26382219562418
C           -2.48276505508346       -1.44882449013686       -0.94857070676733
O           -1.82875006444994       -1.93734563746140       -2.08981136747346
C            1.60353425448977       -0.97785763764534       -1.38547924300649
O            1.16287462955308       -2.17228245442862       -1.97721352107004
C            3.12755677257794       -1.04159239909101       -1.25972877123953
O            3.67761655394659       -0.92512233963551       -2.54343364349299
H            5.22437377642068        1.13613056983480        1.48990774822818
H            5.54980443305465        1.90656794889530       -0.08840120691320
H            6.68850643576737        0.68881282160364        0.56403960361903
H            3.43247478838143        1.07136329624963       -0.86309737745248
H            1.40720931224707        1.29572264531403        0.31735581527307
H            1.64571199558586       -0.33179991039679        2.83033271867934
H            0.00845119590893        0.09341712589389        2.25084935161838
H            1.26462704781273        1.68273681441714        3.69849437802727
H            0.97515157329853       -1.72466825017172        0.53741604758808
H           -1.03680352976012       -2.27030110176443        0.44190807284047
H           -1.93036635867195        1.21397386610658        0.88548335320050
H           -2.48685728246409        0.70926851042295        3.31529851354293
H           -4.06867242237883        0.10970497898854        2.79177592988257
H           -3.15283282090059        2.77160245868391        2.61609323642903
H           -4.54614599800487       -0.30192006323337        0.42349713065153
H           -4.58410269389702        2.06379061863105        0.72950148625753
H           -2.39594026684845        0.61673313770057       -1.55339507114707
H           -4.94335028392547       -0.48544056784611       -1.92594187368059
H           -3.23976134462042       -2.17302620439690       -0.60632210766705
H           -2.39027281448704       -1.74266632195381       -2.85931724144194
H            1.35237502529412       -0.11726263901409       -2.02311126987950
H            0.20230985644641       -2.11623420325213       -2.13595834320498
H            3.40361229127175       -1.99744268874585       -0.79439458652125
H            4.63752991152469       -1.04820447140470       -2.48696385825654
