48
 energy: -84.850014233778 gnorm: 0.000566576736 xtb: 6.7.1 (edcfbbe)
C            5.67524054937909        0.98041570248635        0.51529989790947
O            4.98077925910459       -0.08643883506843       -0.12620109369681
C            3.63637613088088        0.14268680809909       -0.33263849080734
O            2.97740646237134        0.10632815773169        0.91879886818303
C            1.57731657437097        0.30690295045838        0.86640032445257
C            1.08092570099177        0.19191810198288        2.31657800255184
O            1.40542578648604       -1.05011247476771        2.87950394224881
C            0.91361031545934       -0.74772683346437       -0.03062987291858
O           -0.45535851616426       -0.44202662733119       -0.25713386278666
C           -1.42367521394521       -1.37107013139362        0.15933888224645
O           -2.01341829811993       -1.00537178944472        1.37336820176228
C           -2.70685932975488        0.23985957163990        1.32264027191074
C           -3.27211429415263        0.52657815155466        2.72612957085735
O           -4.45191266165080       -0.16977897690408        3.02763969147248
C           -3.79920247779948        0.21495390994591        0.24629744865576
O           -4.41640124489990        1.47509698035680        0.21636009196547
C           -3.18261036858657       -0.14965488767825       -1.11007508608238
O           -4.22861043200461       -0.19484842528416       -2.04885008777144
C           -2.47606009824832       -1.50080020269285       -0.96213848024951
O           -1.87580921455905       -1.85298495195059       -2.18661551870933
C            1.58409508407277       -0.76204227710850       -1.41848986709419
O            1.05528411521586       -1.78103975236651       -2.22208590751476
C            3.09941071567901       -0.94924815625596       -1.28197887625889
O            3.76192061111867       -0.93527437741010       -2.51076121714708
H            5.26182278174317        1.16826862335533        1.50728297889867
H            5.61499818106970        1.88997198654846       -0.08933633384249
H            6.70566613429633        0.64681681275351        0.59113344654086
H            3.47026540954863        1.14296682281386       -0.79108241838027
H            1.34759803858776        1.30659141984559        0.46837547080336
H            1.51284298366956        1.01059270744564        2.90425472913865
H           -0.00732994932998        0.26405541016736        2.33462668203409
H            2.36862591435167       -1.15247552770911        2.85019688803840
H            1.01895846640458       -1.73177893280030        0.44033680363888
H           -0.95945145358144       -2.34597527113927        0.36097014756377
H           -1.99475062814044        1.03726485603561        1.06633368572741
H           -2.52862451309319        0.19516000154491        3.45431440727469
H           -3.42337147713967        1.60641135833593        2.81720651291995
H           -5.19649559329476        0.26569978203094        2.58996312469545
H           -4.53163550695209       -0.56928201440412        0.49678003245339
H           -4.97640870812334        1.51490911705782       -0.57498612529209
H           -2.43839976148519        0.60834002033125       -1.39364060629235
H           -3.87416846662488       -0.48059854901741       -2.90360783281112
H           -3.21810279335554       -2.24471529180669       -0.64989471602769
H           -1.82179817680060       -2.81679027243857       -2.26727771147467
H            1.39245492917050        0.22042484601956       -1.88389498014352
H            0.09545088281399       -1.62451832409787       -2.32537069536218
H            3.31903989051307       -1.92717234017905       -0.84426541097864
H            3.51439025831707       -0.14847488628535       -3.01961286022801
