48
 energy: -84.861605386484 gnorm: 0.000532035801 xtb: 6.7.1 (edcfbbe)
C            5.68486801885466        0.92592518981278        0.50142176416855
O            4.97333070361910       -0.11127957860384       -0.16852865362082
C            3.62522723204569        0.12776235401233       -0.35885322322515
O            2.96174602521746        0.12996816799133        0.88857478164410
C            1.56369178709622        0.34185593277121        0.80093822979086
C            1.01436452830142        0.31849837554947        2.23581106607640
O            1.16927187214152        1.53979985648004        2.90399248024912
C            0.89378413741084       -0.74157079660924       -0.06318164110142
O           -0.46404435361612       -0.41864824227231       -0.30464507453510
C           -1.45474267547626       -1.31040255808704        0.13920449577153
O           -2.03051388321786       -0.87878274404780        1.33900555541305
C           -2.69298111271322        0.38499647704440        1.25196634720459
C           -3.30415199696770        0.65307548477114        2.63327888817879
O           -4.15837869074180       -0.37954817560880        3.04690767709971
C           -3.76713632766963        0.39623977575590        0.15758401262653
O           -4.25136859804309        1.71133804628556        0.06123321685073
C           -3.16868866240240       -0.07505064955092       -1.17402416364643
O           -4.20430708918872       -0.13650250603832       -2.12522574099251
C           -2.50696905007212       -1.44503717614371       -0.97042153566551
O           -1.96068992865749       -1.94098008850963       -2.16310573300910
C            1.58397628428137       -0.82207399424999       -1.43196436884154
O            1.00545720208023       -1.88323931077693       -2.14765337907143
C            3.09180393410771       -1.00075571817655       -1.25553862152204
O            3.67623533978892       -0.97310497767368       -2.52923993872939
H            5.34641851205389        1.01771873042676        1.53337472559434
H            5.54954607678794        1.87707421268079       -0.02027540211950
H            6.72761393095211        0.62376109156156        0.47257684460781
H            3.46103988841214        1.10698726332635       -0.85764638178248
H            1.35747841235558        1.32226822838765        0.34462917181980
H            1.51142692256605       -0.49704759323357        2.77419443262649
H           -0.05851105830546        0.12445532769872        2.20385123262730
H            2.11100635389258        1.71077638783095        3.04608969430037
H            0.97730453593487       -1.71385618238142        0.43616320412733
H           -1.02139301439219       -2.29376482132236        0.36610022421617
H           -1.96545568206084        1.17371372173878        1.01870089345380
H           -2.49321791741961        0.80066215929352        3.35683965299528
H           -3.90809927483283        1.55898550731307        2.57296685770034
H           -3.64788462135525       -1.20216693123377        3.06941293635958
H           -4.57850895915027       -0.29225033522256        0.44060112625021
H           -4.88046506937450        1.74611275680161       -0.67557933599940
H           -2.40042336024045        0.64636262877802       -1.49426753695170
H           -3.88871331379585       -0.65104353177375       -2.88387458369202
H           -3.27418003512701       -2.16015468041224       -0.64835559854118
H           -1.01546347985974       -1.71042121492350       -2.22062032229977
H            1.40794085345009        0.12572981918137       -1.96480661537825
H            1.53689394272458       -2.03972036413306       -2.94472404375109
H            3.29395764343661       -1.95486236712359       -0.74718850046707
H            4.63792901864419       -1.05438197552297       -2.44303109224852
