48
 energy: -84.857241459515 gnorm: 0.000535478902 xtb: 6.7.1 (edcfbbe)
C            5.60292802761442        1.08460581077972        0.40923682954306
O            4.95974017163523       -0.02424663826349       -0.21485027079525
C            3.59806295235078        0.12231569552769       -0.38596791435247
O            2.97183743995072        0.10307011621599        0.88057747568521
C            1.56543396368998        0.26901202469972        0.85861082188479
C            1.11134470315985        0.16397524765001        2.32418428004005
O            1.45260195930898       -1.07843593463134        2.87929941699368
C            0.88639411581037       -0.80922041561964       -0.00249296368574
O           -0.46867924770254       -0.46484081392935       -0.24649479969634
C           -1.47221572218665       -1.33932832108390        0.20101718584147
O           -2.04365070059425       -0.89576990836892        1.39827299665178
C           -2.64725876899474        0.39170325903729        1.29175458866209
C           -3.14594524718563        0.78650181657023        2.67838294017378
O           -2.04094598466734        1.20792792462172        3.44434481788612
C           -3.77304347192656        0.37644042747327        0.24970239652605
O           -4.31903571263624        1.66545011526799        0.16055439997473
C           -3.19840786271184       -0.08870651154448       -1.09457263844815
O           -4.25052798514749       -0.14888899965866       -2.02771241471874
C           -2.53055718094857       -1.45890843412381       -0.90666338503196
O           -1.99560334742644       -1.93723484618483       -2.11263212689324
C            1.55992116410210       -0.90154388980544       -1.37894089852614
O            0.99185851345688       -1.98462320569458       -2.07252878356518
C            3.08224433194845       -1.04021364240707       -1.24792437757585
O            3.68596416358797       -1.11503109176072       -2.50878227261334
H            5.20904116417604        1.24265293775934        1.41387522457951
H            5.46327852114769        1.99007493178579       -0.18831138635284
H            6.65481267290724        0.81924655095589        0.45166073099718
H            3.36248217394198        1.09080209944171       -0.88258481185341
H            1.30288016566935        1.25724714652835        0.45322947819532
H            1.56732116663063        0.98295130008674        2.89180026521741
H            0.02561685940770        0.24828392269276        2.38820158864185
H            2.41774198224029       -1.16326702022229        2.86153866200378
H            0.95547070284535       -1.77616663489608        0.50795159877363
H           -1.05469122219264       -2.32819106593539        0.43144226655677
H           -1.89254942835080        1.12513085625108        0.97573565049537
H           -3.63034335378248       -0.08707429558002        3.12841282947069
H           -3.87010092937746        1.60072718618078        2.55649470097265
H           -2.32576563750028        1.36226012441934        4.35620789267097
H           -4.54553468369472       -0.34464516251201        0.56245366013494
H           -4.90215735640525        1.69182366861719       -0.61450535820681
H           -2.43716053601842        0.63406168463837       -1.42789612111773
H           -3.95190631052488       -0.67164785197389       -2.78752216304669
H           -3.29503781884733       -2.17719509056352       -0.58352332713721
H           -1.03827012676867       -1.76100677478243       -2.14984298272540
H            1.33393055611800        0.03482518856161       -1.91842919523170
H            1.59606466386170       -2.24736925266717       -2.78662892127792
H            3.33143959287938       -1.97791588095497       -0.74140172105009
H            3.70080990434986       -0.24532937330720       -2.93563180950133
