48
 energy: -84.854635484508 gnorm: 0.000598605831 xtb: 6.7.1 (edcfbbe)
C            5.61652528514767        1.00402190521591        0.53340201093304
O            4.95573860261358       -0.04383466412942       -0.17324875570049
C            3.60361495398951        0.16702648944510       -0.37635535404452
O            2.94414728481210        0.16915895999185        0.86858362618661
C            1.55643115117040        0.40915094597942        0.77010977062392
C            1.01175352481761        0.47741246927836        2.20431143369836
O            1.46852813092550        1.59325711056837        2.91802445935122
C            0.88758073606368       -0.71176069889268       -0.04264725195494
O           -0.47333605178403       -0.40497151859223       -0.31137513150075
C           -1.45784368213448       -1.28007822948558        0.16488266978368
O           -2.05571277737120       -0.80983037579979        1.34201717408574
C           -2.72187922504389        0.43885474081109        1.17784136876153
C           -3.25724997322180        0.87011032426960        2.55080936691798
O           -3.54055260797066        2.24091322013227        2.60314131040990
C           -3.84439352452337        0.31701987020393        0.13679548604778
O           -4.46832750833647        1.56798713888818       -0.00360784382918
C           -3.25013958540044       -0.17121949136772       -1.19147031570422
O           -4.23553839579067       -0.30460695745058       -2.18622975733470
C           -2.49874166485525       -1.48444403454071       -0.95214979192822
O           -1.82225945144047       -1.92895426331225       -2.09840744991127
C            1.57167836751545       -0.90611400267496       -1.41261535735484
O            1.13932370434750       -2.10230502957392       -2.00593971680491
C            3.09602151655859       -0.96622846991554       -1.28603025583175
O            3.64521538075640       -0.83849134781154       -2.56926394231112
H            5.17722370038407        1.13237443507406        1.52354490841361
H            5.54535345784693        1.93975587748826       -0.02830846630893
H            6.65214843773749        0.68805294453814        0.61424603365513
H            3.42710457969755        1.14156932516114       -0.88281049773517
H            1.38235380679180        1.36513387501125        0.24882436409420
H            1.38168902288062       -0.39282231286467        2.75062225326014
H           -0.08276418417714        0.44501948189677        2.17238833512646
H            1.14280831606683        2.40835879126348        2.50870694152033
H            0.96736611626171       -1.65043888881640        0.51899101886036
H           -1.01989994509055       -2.24918543613612        0.43591168942359
H           -2.00772421101407        1.19548557220893        0.82338433090728
H           -2.48847154219742        0.67731367146069        3.30234147123954
H           -4.14337191543223        0.27178227696675        2.79874476286356
H           -4.14883898506323        2.45684966007143        1.87704764153933
H           -4.57501271292940       -0.42897266930385        0.49682727897033
H           -4.91708694211824        1.60320254883108       -0.86366560321844
H           -2.54381253390323        0.57509157506076       -1.57052227003172
H           -4.89175504978401       -0.96646611296215       -1.91764541962161
H           -3.21010311156239       -2.25309869129617       -0.60711527313324
H           -2.38903428991583       -1.77599761358773       -2.87266015431760
H            1.31772267381252       -0.04718226253984       -2.05168737053847
H            0.17546640231171       -2.05880283962778       -2.14963672431162
H            3.37234599086314       -1.92550997646215       -0.82835444761143
H            4.60321472555928       -0.97563834011155       -2.51704152539371
