48
 energy: -84.846057385507 gnorm: 0.000949241503 xtb: 6.7.1 (edcfbbe)
C            5.65454838519188        0.93716572701483        0.60751233369294
O            4.98702883367576       -0.12794541036781       -0.06544824199043
C            3.65725559810592        0.12212649317175       -0.34051506918517
O            2.94444624404088        0.12070480618239        0.87814293775165
C            1.56196878438201        0.37146435096399        0.74130148119773
C            1.00862490510408        0.50587427346375        2.16151234161755
O            1.30486939278160        1.80222276199355        2.62363469336922
C            0.89227482789223       -0.76151320172227       -0.06373120644137
O           -0.47046013881182       -0.45087090365424       -0.31499702054772
C           -1.45554423738771       -1.31560571265166        0.17677822484805
O           -2.02718678176805       -0.82139223487658        1.36343943859295
C           -2.68466814381165        0.43503865298689        1.19801463383299
C           -3.19456274540312        0.88890303352175        2.57028910602572
O           -3.02610493649994        2.28298005745507        2.65612249497876
C           -3.81707564858061        0.32973406217555        0.15972790501399
O           -4.53934470945968        1.52005051751470        0.02733110790132
C           -3.21799242571987       -0.16646131433905       -1.16603344624727
O           -4.15629942239310       -0.26679086263164       -2.20642941426977
C           -2.54743339910577       -1.52134128428035       -0.88882545816978
O           -1.98750592150182       -2.09531805278545       -2.03374866706972
C            1.60937909298324       -0.89551801051361       -1.42145553090500
O            1.14832694530870       -1.97090461834993       -2.19455694304045
C            3.13876551255309       -0.98585337875656       -1.26334377101820
O            3.76507298946950       -0.85078579490286       -2.50979752256948
H            5.16305829290139        1.15473036952337        1.55729807562989
H            5.66241097286007        1.83342749746674       -0.01922537673174
H            6.66729365533920        0.58255280640288        0.77310098370556
H            3.52997737243757        1.10344870737770       -0.84337883398244
H            1.40200624136184        1.32238670876223        0.21033735682785
H            1.49612014907998       -0.25711786946207        2.77888038895791
H           -0.07351605227909        0.33479614803151        2.15004199289645
H            1.13960788430899        1.85150425790389        3.57525654629571
H            0.97603403092713       -1.69902324237290        0.50036955335060
H           -1.02668146819107       -2.28700709382139        0.45223714968877
H           -1.95433486424780        1.18108227173452        0.84936045301135
H           -2.60541359332486        0.36620174810530        3.33369387324702
H           -4.24879100768233        0.61226425595492        2.68015233043243
H           -3.41924887603900        2.60605222948445        3.47887284998311
H           -4.54740259401547       -0.41059928680455        0.51330509794107
H           -3.94289077011051        2.24883189057998       -0.19547547029895
H           -2.45015307183292        0.52997054656111       -1.52246284245678
H           -5.00110172966525       -0.59246963231449       -1.86379484232089
H           -3.29301121411610       -2.21027052017285       -0.45314557123916
H           -2.51342930008336       -1.81617928399498       -2.80165155176533
H            1.37180375351585       -0.00247766736013       -2.01094506905545
H            1.23666094014932       -2.80121551316088       -1.70464462933160
H            3.41166707622869       -1.94647999267231       -0.79721444242694
H            3.29863017585896       -1.41738529834112       -3.14747643389768
