48
 energy: -84.855407227413 gnorm: 0.000432288060 xtb: 6.7.1 (edcfbbe)
C            5.68786437668620        0.89582187701570        0.44867538205796
O            4.98488763224101       -0.12732885641563       -0.25330646202577
C            3.62971780350893        0.10871387896675       -0.40098387716061
O            3.00750699655051        0.06208140200086        0.86277620251188
C            1.62069524275815        0.33106600807820        0.81408384598283
C            1.12044673288200        0.39221030402352        2.25811319908829
O            1.41247929386186        1.67242178779918        2.76814736074175
C            0.91335404227313       -0.74862582029544       -0.02430775032133
O           -0.45311388923145       -0.42702711134401       -0.22162302084954
C           -1.43136531469575       -1.31644061858073        0.25225834996757
O           -1.97489258200537       -0.89669356472516        1.47105574742786
C           -2.60851006456280        0.37960130992020        1.41662391805982
C           -3.13803877386483        0.68220522164303        2.81520979285819
O           -2.05249018283262        0.94279399024173        3.67437346045443
C           -3.73686748893528        0.39512273925007        0.37705970175406
O           -4.26571823171596        1.69354883742644        0.32196899334171
C           -3.18416932501890       -0.05112693576909       -0.98237887629871
O           -4.25229001151677       -0.09045196058745       -1.89867521278992
C           -2.52341648748345       -1.42844507597280       -0.82556820225792
O           -2.02921953140123       -1.91482712063520       -2.04273706316371
C            1.55326526921227       -0.82290448379650       -1.42941161925004
O            0.93417561443480       -1.81520087142762       -2.20336640423482
C            3.07010209377685       -0.99137536559029       -1.32169082564648
O            3.62493052238196       -0.91342238915151       -2.60506269028799
H            5.27857085517530        1.01936589927965        1.45188440197772
H            5.61875149301688        1.84144337063434       -0.09612437979780
H            6.71868266317545        0.55798178721089        0.49473128154783
H            3.44771965710049        1.10328207440320       -0.86134896839943
H            1.44631146782786        1.31134342757598        0.34451773943512
H            1.64642070152384       -0.38217528436920        2.83073765140123
H            0.04416448341625        0.19971224767763        2.28519062810780
H            0.97297400166824        1.77639841409222        3.62365050552029
H            1.01054005722359       -1.71585204982166        0.48385731768602
H           -1.00104004088606       -2.30483538390541        0.45945380033702
H           -1.87156681375697        1.14568821503172        1.13933088286351
H           -3.70601443913453       -0.19027786308389        3.15756025726713
H           -3.79732311618081        1.55418031402311        2.73814518869321
H           -2.39476759600113        1.06587538985403        4.57155011429770
H           -4.51839876050889       -0.32118112436193        0.67966109884934
H           -4.85367055318899        1.74783317054960       -0.44817218733860
H           -2.42314113719752        0.67163307244168       -1.31580339005064
H           -3.97543442019905       -0.61382725006233       -2.66634066342593
H           -3.28073655917393       -2.14577656709033       -0.48715472937744
H           -1.12453030178527       -1.58555411670928       -2.19682360538168
H            1.34268344848024        0.12045595101345       -1.94697689671034
H            1.35575704142506       -2.67481644839902       -2.05660778167803
H            3.30537103020810       -1.95881623342976       -0.84969289976846
H            4.59088210360618       -0.96239922794242       -2.53611827068690
