48
 energy: -84.850424304242 gnorm: 0.000947188338 xtb: 6.7.1 (edcfbbe)
C            5.71195531980935        0.81076189255898        0.44216263564391
O            4.99187189507264       -0.20458754286704       -0.25372135506015
C            3.65524308699861        0.08113951030484       -0.46283215684214
O            2.99386257679133        0.15384432121270        0.78032366685748
C            1.61484566482932        0.44518320044657        0.68378923190377
C            1.08449213366271        0.56292405068141        2.11826794165035
O            1.61838380859109        1.65355854614976        2.81772774348012
C            0.89153796023257       -0.66214402606014       -0.10609985418991
O           -0.46894835002570       -0.33769284567501       -0.33671271242122
C           -1.45537918646290       -1.20201561888658        0.17786151696600
O           -2.00456901089289       -0.70753592949257        1.36562819493377
C           -2.72878859073511        0.51804915667268        1.23443876430153
C           -3.30075628860312        0.80053663575730        2.63740038806188
O           -3.75457343415366        2.11056471121184        2.81845945412072
C           -3.82555315329170        0.42102524264387        0.15192425504220
O           -4.53275598113068        1.61996880497612        0.00121341274906
C           -3.19522332181003       -0.05417541812193       -1.17437128890862
O           -4.12045098080898       -0.08491063780602       -2.22535874056054
C           -2.52713525511164       -1.41615751330917       -0.90574690832525
O           -1.99823066876776       -2.02029357152468       -2.04978160913723
C            1.56216661614837       -0.82965707745609       -1.47934473852452
O            0.94470571390920       -1.90489892934078       -2.13736148663221
C            3.06832825345489       -1.05180455812568       -1.31836436062933
O            3.63072740315605       -1.08165727502324       -2.60235453308594
H            5.28869202973418        0.96506674232292        1.43530108618554
H            5.68419974326254        1.74631272729360       -0.12299129094174
H            6.73049990406225        0.44254218644005        0.51590350147901
H            3.53598638876371        1.04898284048823       -0.99750655397688
H            1.47512150337167        1.39738238595777        0.14566172637977
H            1.39343969205938       -0.32373608393280        2.67480537572042
H           -0.00996812004790        0.60219189375189        2.08785285728617
H            1.41017664330082        2.48004811742745        2.35832437212243
H            0.97142106503957       -1.60709617151306        0.44327456003040
H           -1.01317683795308       -2.16881092241369        0.45155091635250
H           -2.03219306284399        1.32009260850218        0.94496795945630
H           -2.52559864327299        0.53469652507977        3.36578801583816
H           -4.16395222030936        0.15396150348855        2.80298772829180
H           -3.00600149571760        2.72138893811126        2.86022144096084
H           -4.57189839848791       -0.31354069938593        0.47889613298838
H           -4.00419192499690        2.25956336783174       -0.49662889429910
H           -2.42512817957943        0.65668144543337       -1.49612533287850
H           -4.79306227392888       -0.76025675374786       -2.05867989901829
H           -3.27931807544277       -2.11169658203948       -0.51234566674989
H           -1.09318513250897       -1.69945498464231       -2.21029967586104
H            1.41020947076256        0.09601271560878       -2.05736036579326
H            1.46307626409404       -2.11701820662580       -2.92968026500436
H            3.24564416302829       -1.99737352771245       -0.78549256022120
H            4.58910629521566       -1.20294719766045       -2.53036264597870
