48
 energy: -84.845454732410 gnorm: 0.000778438526 xtb: 6.7.1 (edcfbbe)
C            5.43812252793474        1.27819772243722        0.49445312775272
O            4.88042680806456        0.15730427769044       -0.18788336339562
C            3.50933060174370        0.21658954220877       -0.36498150733987
O            2.86864880810223        0.14145570951293        0.88842180765971
C            1.46582264664584        0.27194183708659        0.80105893913653
C            0.93190169800683        0.25766810524281        2.23523215069313
O            1.00086514569765        1.56757630171280        2.74953429436772
C            0.84046951676328       -0.84065628579818       -0.06419486263689
O           -0.50669432607051       -0.48912844314311       -0.34327861319800
C           -1.52292255374552       -1.35609592834924        0.08252265746310
O           -2.11466986623869       -0.91021614688696        1.27175445771190
C           -2.74495976925779        0.36514436260611        1.18345669045544
C           -3.43662148296420        0.61553396897504        2.52581118210102
O           -4.47782130148787       -0.31747396602597        2.69181701462863
C           -3.76639768156032        0.46788374959626        0.03287025474030
O           -4.22993254050097        1.78616522270345       -0.08943402433062
C           -3.15989775614544       -0.05919143575600       -1.27248274048374
O           -4.16493764138741       -0.07493856684102       -2.25986601502476
C           -2.59532923114954       -1.46781155363965       -1.01459776740138
O           -2.02370370847293       -2.03501401900525       -2.16209286610420
C            1.57813885131457       -1.02753000991639       -1.39918852445852
O            1.17900042120294       -2.26565175004409       -1.92526696542124
C            3.10333241112093       -0.98404711214358       -1.22875424542081
O            3.66743022870196       -0.91510766616442       -2.51169416144873
H            5.00856963950290        1.36876549166611        1.49264233071234
H            5.25247476521767        2.19507215027916       -0.07183602670154
H            6.50367891624433        1.07763285726189        0.55406828733320
H            3.21394545708512        1.16173333276274       -0.86918551773732
H            1.21270243805169        1.24072066533294        0.34125886158761
H            1.56109988240333       -0.42944668757747        2.80953094445856
H           -0.10333764406057       -0.10361530829279        2.23589361408230
H            0.92480951947035        1.54168388508090        3.71358246884001
H            0.88345071377758       -1.79354928676741        0.47697776644322
H           -1.11982746420492       -2.35132258934649        0.30418348347033
H           -1.97052476875076        1.13296521295017        1.03033249572295
H           -2.69137526078623        0.50732709466421        3.32159399792527
H           -3.82795420110585        1.63950332563855        2.51319670282878
H           -4.92106714699290       -0.14731851779785        3.53519702203331
H           -4.64789249202570       -0.13253995272142        0.27978642258816
H           -3.52658176383594        2.34642083262002       -0.44976662526048
H           -2.32483476954927        0.58917780178956       -1.57267888281682
H           -3.75431778285264       -0.11740570882632       -3.13545689906298
H           -3.39670360067188       -2.10172483733099       -0.61130676387545
H           -2.72796257223372       -2.38807602779732       -2.72656080279216
H            1.28191477168795       -0.20867483074120       -2.07140856774020
H            1.60340872375402       -2.38674414306391       -2.78858860789018
H            3.42951622035667       -1.89302999230201       -0.70184986791330
H            4.63205260731398       -0.86671972296864       -2.43131666931900
