48
 energy: -84.852251272719 gnorm: 0.000369952646 xtb: 6.7.1 (edcfbbe)
C            5.75319013058373        0.82933738738538        0.52709931424577
O            5.04081821653826       -0.21058515722698       -0.13922365762795
C            3.71208168695300        0.07755535602940       -0.37878481986319
O            3.03040348475782        0.08705530778263        0.85804598231047
C            1.64959945611067        0.36971888878332        0.75796665377757
C            1.10888519847778        0.49292280676989        2.18305234128662
O            1.35886357654589        1.80376939240017        2.63475010484931
C            0.96104715876516       -0.73487323946879       -0.05982772154968
O           -0.40729860556959       -0.43330266226895       -0.28449302688786
C           -1.37335645855428       -1.32748526025573        0.19713721753199
O           -1.94517642925007       -0.90312912014200        1.39862872957872
C           -2.63167470547947        0.34355941430638        1.31165844224006
C           -3.16903035394090        0.65952886753730        2.70548745897486
O           -2.09325602882840        1.00013851821039        3.54814057832430
C           -3.76384769455523        0.26984939493770        0.27690651140150
O           -4.38140442973619        1.53111043831858        0.20816906814662
C           -3.16426722420839       -0.14929028696470       -1.07942626466752
O           -4.15451853942310       -0.33272326176020       -2.06732200880235
C           -2.44305584977543       -1.48732344193619       -0.89649893390402
O           -1.80389056600717       -1.91219661361274       -2.06992493813817
C            1.62848190421564       -0.85742187238889       -1.43891597689462
O            1.15941868185995       -1.97887945480340       -2.14460385915313
C            3.15136613586748       -1.00005075950936       -1.31618631972407
O            3.76938243634800       -0.84560729505245       -2.56381199466398
H            5.29488867715580        1.04677911792485        1.49335311137950
H            5.76446539830776        1.73293574581074       -0.08902167882533
H            6.76125409501167        0.44795313666260        0.65830554283896
H            3.60124638224623        1.06874040407286       -0.86766178408846
H            1.50213202698991        1.33361730614257        0.24565470090654
H            1.63540922088977       -0.24163484546099        2.80488608926797
H            0.03579543760067        0.27892815613864        2.19328616398908
H            0.94697026009254        1.91948813119438        3.50269759260486
H            1.06360494356815       -1.68744667904075        0.47461239528800
H           -0.92527525580597       -2.30389934274392        0.42194805714562
H           -1.92921331812109        1.13270887762731        1.01125150729388
H           -3.68867194954641       -0.23150491783186        3.07716023321819
H           -3.87114535926994        1.49634439519387        2.61165994546920
H           -2.43466599379704        1.13403782110173        4.44384729759374
H           -4.48021437716996       -0.50111847764879        0.59465238471013
H           -5.24418677676597        1.44529919691046       -0.22341681350280
H           -2.42763528866506        0.60149106192319       -1.39146185841837
H           -4.41183718786683        0.52359892524638       -2.43583187880198
H           -3.17320502450047       -2.23926189881891       -0.56196228407144
H           -2.45600163542640       -1.89216718253540       -2.78989397155452
H            1.41043485805346        0.06496233430081       -2.00070614961889
H            0.18677081652361       -1.94040633666799       -2.20692809451199
H            3.38853785245990       -1.98010988400541       -0.87869485494328
H            3.41964402470910       -1.52633840255217       -3.16092553552492
