48
 energy: -84.854196452608 gnorm: 0.000509891294 xtb: 6.7.1 (edcfbbe)
C            5.65877265466954        1.02351562723627        0.45052623454824
O            4.98486225306808       -0.09333901285511       -0.12439221817728
C            3.63895177198531        0.10722429376193       -0.35211306331994
O            2.97401442078424        0.08131635220030        0.89537698325646
C            1.57265961945732        0.26154874486579        0.82844119933731
C            1.06512506411033        0.18349500450690        2.27680961644113
O            1.40179999301774       -1.03482932951809        2.88310266243401
C            0.91847875783533       -0.82020761813933       -0.04441797229034
O           -0.44023625109025       -0.49079856957746       -0.29867788055244
C           -1.43355011963219       -1.38250513096443        0.12802728026882
O           -2.03173854142658       -0.97278161082757        1.32330977738870
C           -2.70549123325822        0.28242040246205        1.22520535630094
C           -3.24809702059964        0.62418876725502        2.62207336724945
O           -4.60427265768556        0.24988262985592        2.72365098246517
C           -3.82304260959450        0.21633895074826        0.16401705523072
O           -4.47615530822505        1.45034822947992        0.02638455324033
C           -3.19941284636472       -0.17220327862291       -1.17925416503130
O           -4.12577985369936       -0.25777501953282       -2.23192471931192
C           -2.46599926798593       -1.51069791831273       -1.00356782097026
O           -1.79326846110946       -1.89415948390637       -2.17492700657768
C            1.60812650434621       -0.91293978871627       -1.41450925133989
O            1.17862634985427       -2.04257293488936       -2.13242777187208
C            3.13230401427824       -1.00532020929907       -1.27792775065493
O            3.75651007116744       -0.83961846778457       -2.52125774230475
H            5.23348497895633        1.26971153250407        1.42492356553429
H            5.58977378513229        1.88914511725920       -0.21426559986950
H            6.69339066649882        0.71144754732805        0.55585219176694
H            3.45800985223399        1.08581350379601       -0.84354211989760
H            1.33511002122189        1.24602872086093        0.39782289747192
H            1.48024112936764        1.02626297310307        2.84204632837130
H           -0.02412401075095        0.23982108511735        2.28113117341710
H            2.36544005080288       -1.13109186415118        2.85019245277898
H            0.99422196382573       -1.78656345332966        0.46877294792724
H           -1.00245414247905       -2.36726932470038        0.35129543153578
H           -1.98152017126098        1.04813810703420        0.91410105712835
H           -2.63059782503228        0.08025137026407        3.34400221721695
H           -3.14251583388545        1.70254959041895        2.79135644379125
H           -4.87438707009617        0.27814575264093        3.65200580097880
H           -4.53154133742289       -0.56952926091506        0.46555277629272
H           -5.03252393919340        1.59012690554234        0.80777269122327
H           -2.47541829733406        0.59336163713203       -1.47880392199754
H           -4.95785299635039       -0.63840276136886       -1.91477579080297
H           -3.19236205250431       -2.28700717524444       -0.71381698853490
H           -2.35584235573842       -1.65405930157863       -2.93086406204229
H            1.36595944933626        0.00672852206896       -1.97138023732561
H            0.20853791096440       -2.01457624790663       -2.22983414359616
H            3.40102124983907       -1.97209948724396       -0.82998744587644
H            3.42230866752402       -1.52617513859909       -3.12043430204015
