48
 energy: -84.852208174123 gnorm: 0.000744905327 xtb: 6.7.1 (edcfbbe)
C            5.37747176284669        1.37970295639603        0.47451107428704
O            4.84013523535922        0.21738336548087       -0.15065095363156
C            3.46984305043571        0.23672607490395       -0.33910136107145
O            2.81779494446040        0.20043087451019        0.91140618963491
C            1.40868997020000        0.26241890924653        0.80882446793835
C            0.85776217593810        0.19916374054942        2.24080088124197
O            0.93978933975494        1.42428692646858        2.91492806405017
C            0.82015230891808       -0.87463501914121       -0.05084639538592
O           -0.52149245906610       -0.52729206043608       -0.36473623939797
C           -1.54558062348693       -1.38175530653725        0.05261327160795
O           -2.15854382795176       -0.90188657366875        1.22792139561825
C           -2.73880977004637        0.39101226629618        1.07211995965736
C           -3.22423827103837        0.86685035635667        2.44318344598116
O           -3.26936295749846        2.27188558477214        2.41485153038538
C           -3.86332989502697        0.34217145820857        0.02332959436976
O           -4.56344275756979        1.54654688414647       -0.10110893885745
C           -3.24698505055517       -0.13277148154518       -1.30340145157796
O           -4.16896728467729       -0.19132241681486       -2.36285996371549
C           -2.60100888853240       -1.50867711472290       -1.06349434107085
O           -2.00825662132422       -2.02097540940735       -2.22138174431528
C            1.58771402924903       -1.08808500018088       -1.36408505267269
O            1.22525831918931       -2.35085539023393       -1.85697832026321
C            3.10648670977354       -1.00832889399519       -1.15783825840994
O            3.70219176056411       -0.98285565796449       -2.42777851712860
H            5.01125592324890        1.46760224241048        1.49752542488783
H            5.11013231610379        2.27433907076297       -0.09429122471872
H            6.45412047098089        1.23642122989557        0.47080245616064
H            3.15593143936713        1.15150165261882       -0.88611885102506
H            1.11301857916511        1.21530478577734        0.34109043491448
H            1.40589246078999       -0.58580130158622        2.77619930583435
H           -0.20070752205805       -0.06215828741431        2.20760733545902
H            1.87027993872924        1.67307161808942        3.01196789340358
H            0.85128645491895       -1.81666410081974        0.50933323246971
H           -1.15486774003234       -2.37428034676728        0.30345729772076
H           -1.96525538202003        1.09596358496742        0.73258713647806
H           -2.50973496799617        0.50675217065480        3.19354311358940
H           -4.21249496294180        0.44126180278327        2.65247859081330
H           -3.58161469839841        2.60069379890111        3.26930062310407
H           -4.61017264477322       -0.39527060639729        0.34752889513133
H           -3.94445044684322        2.28486754739389       -0.18682185796245
H           -2.46355234764907        0.56198544101805       -1.62745205964385
H           -5.03232288369152       -0.48368791308249       -2.03573939719505
H           -3.37206250547757       -2.20785610610781       -0.69470645971089
H           -2.55147287805028       -1.74724144728616       -2.98034834669295
H            1.29034642270162       -0.29738176668073       -2.06839832010960
H            1.66194010489820       -2.48790532828925       -2.71165183054023
H            3.43527077280736       -1.88736717841928       -0.58393315379531
H            4.66465188814293       -0.92537364890482       -2.32690051687918
