48
 energy: -84.849278368199 gnorm: 0.000568959599 xtb: 6.7.1 (edcfbbe)
C            5.55554209522555        1.15239806521286        0.48033655870917
O            4.94640950249569        0.01551542833290       -0.12701558166321
C            3.58358716285122        0.13076556308198       -0.33675343132711
O            2.92312400765968        0.11592231328317        0.90847034949688
C            1.51994501533606        0.25090571570308        0.80890037009320
C            0.99174549420450        0.17860653447567        2.25191409858367
O            1.37086764972259       -1.01427274769340        2.88364539021184
C            0.87964113057387       -0.85511230740233       -0.05353294513813
O           -0.45779317247082       -0.46629121373288       -0.34767136716443
C           -1.50192330807701       -1.29395098339172        0.08077485017675
O           -2.08660767535011       -0.79579492667876        1.26045991581547
C           -2.68027347320827        0.49307777112361        1.11173397908489
C           -3.21360536577938        0.90977841777050        2.49556474500633
O           -3.30718369507363        2.30148749203648        2.64242725108477
C           -3.77961450739029        0.46096293491961        0.03977709338380
O           -4.42309139772373        1.69368233730308       -0.14364870839771
C           -3.18230790378067       -0.05083119939589       -1.28211921909410
O           -4.17156742546197       -0.18238144912281       -2.27463909002899
C           -2.56084175032327       -1.42565255931227       -1.02760141807915
O           -1.96298138709414       -1.97756892959229       -2.16316545184992
C            1.62525403796168       -1.04981370115758       -1.39402790847934
O            1.18017156104871       -2.18539181890273       -2.07778292219812
C            3.14772963491657       -1.06918228710999       -1.19162337696315
O            3.75786611577548       -1.03282725328546       -2.45232327492801
H            5.13350664536507        1.33197277936049        1.46964280233470
H            5.41601318601098        2.03667312411587       -0.14751255078790
H            6.61043222887359        0.90642754939004        0.55784059692400
H            3.33924487254845        1.07371044041899       -0.86907738043028
H            1.26564777722539        1.22155269852646        0.35750702620842
H            1.36240438187893        1.04716012468447        2.80897472042580
H           -0.09856238804403        0.18115616510909        2.23836384316554
H            2.33871795545026       -1.05899226694123        2.89149049919156
H            0.88841350781799       -1.79487774854251        0.51242818499771
H           -1.13167659597236       -2.29085897440761        0.34588646009101
H           -1.90245791561348        1.20528398745345        0.79029797027065
H           -2.56397807433475        0.45982663336133        3.25371354550476
H           -4.22455536496749        0.51997623743523        2.62793248549293
H           -2.43012838816432        2.67938729311649        2.79694495235143
H           -4.56564337802187       -0.23754086783056        0.35208073365040
H           -3.77289282997391        2.40976408595627       -0.18048935991566
H           -2.38957176875514        0.63167085116135       -1.62853412176365
H           -4.78495820687540        0.56499164967006       -2.19219837797268
H           -3.35088708200943       -2.09518771394544       -0.64723007528837
H           -2.56872630750122       -1.85829685671168       -2.91170699723734
H            1.37065675959565       -0.21105789292150       -2.05090017313790
H            1.48716690418043       -2.98828445042592       -1.63121578263739
H            3.43346190626723       -1.98082457146962       -0.64346971757596
H            4.72099982789827       -1.05268551126684       -2.34050913041072
