48
 energy: -84.855698338581 gnorm: 0.000629351435 xtb: 6.7.1 (edcfbbe)
C            5.68290214883634        0.97444077680175        0.45156960331405
O            4.99524616598046       -0.10245597642039       -0.18106371301788
C            3.64172081543427        0.10912751751789       -0.37105344239865
O            2.99577716085105        0.11556936865937        0.88231022513865
C            1.60245245942851        0.34798673240768        0.79909109213423
C            1.08210847945110        0.37185097440460        2.24372767064620
O            1.25911533664531       -0.86024963304233        2.88862865799454
C            0.92597051574532       -0.75580028990068       -0.02828044262193
O           -0.43413060639901       -0.43074808223048       -0.28059827925147
C           -1.42158230892669       -1.30818934342649        0.18903111503164
O           -2.00916617352694       -0.86647648683174        1.37666558272380
C           -2.68088543529076        0.38696129409380        1.26252752955044
C           -3.27311038991522        0.70030641411349        2.64085743994885
O           -2.28474573789808        0.84139401306739        3.62668429193590
C           -3.76936740978509        0.34133638128228        0.18527596265319
O           -4.32648599543000        1.62338936592374        0.07626925201698
C           -3.16046244136136       -0.12160513083090       -1.14750180324980
O           -4.21075112987375       -0.20435151715162       -2.08542653656650
C           -2.47470353599872       -1.47857342355974       -0.92119791058968
O           -1.81193320919191       -1.95394713883038       -2.06755369223464
C            1.60082673483964       -0.93834288274972       -1.40197506859726
O            1.14666174943947       -2.11561700126667       -2.01670912341967
C            3.12314788124567       -1.02361656551206       -1.27470029631111
O            3.67810415405388       -0.90843578969408       -2.55655839685745
H            5.28184755984298        1.15284954217506        1.44987246128693
H            5.59502808307078        1.88349589539577       -0.14989237124056
H            6.72007694862527        0.65840957052476        0.51061889571198
H            3.45804176677081        1.08217925005726       -0.87554432706090
H            1.40924750028611        1.31877289825813        0.31796001952388
H            1.59645812751537        1.17384905908493        2.78538811453716
H            0.01161206810128        0.57467275687728        2.24152094222231
H            2.20850675321381       -1.04689956407157        2.93221903740186
H            0.99704391592710       -1.69938803952125        0.52699735239284
H           -0.98678660222822       -2.28576663172037        0.43570599477155
H           -1.95782530676549        1.16772981951836        0.98839921056528
H           -3.97876774009222       -0.09539584805072        2.90767099518205
H           -3.80143623934732        1.65297958493452        2.58279756617178
H           -1.82659213693538       -0.00601804655987        3.72447278132788
H           -4.54089285493520       -0.38818938215136        0.47960910909620
H           -4.96053174118503        1.61796719933949       -0.65869846450495
H           -2.40097897133945        0.60414026551672       -1.46268102094271
H           -3.85801609200045       -0.15433160756784       -2.98463691583403
H           -3.22184078938654       -2.19955561899869       -0.56659454442824
H           -2.45188249830030       -2.37357683417769       -2.66169035867529
H            1.36001425274411       -0.06351234376708       -2.02483008196745
H            0.18276955904142       -2.05096769116093       -2.14956350051793
H            3.38486204924883       -1.98538118424778       -0.81365856497853
H            4.63388316267044       -1.06000866836048       -2.50161499513687
