48
 energy: -84.852669248864 gnorm: 0.000866956284 xtb: 6.7.1 (edcfbbe)
C            5.65008835639216        1.03231361809339        0.50024665523680
O            4.96975451253495       -0.03776594150136       -0.14985637394530
C            3.62461837052389        0.17570109877036       -0.37147727904316
O            2.95346323538936        0.19978075399630        0.87398529385695
C            1.55422400792145        0.38723789109416        0.78230895406496
C            1.00199053888196        0.39337552506984        2.21711161079323
O            1.03106550956874        1.66007578976048        2.81620579773254
C            0.90560652310251       -0.72570637123436       -0.05684783520611
O           -0.45769729402963       -0.41312450049438       -0.30175028335185
C           -1.43942382407240       -1.30161103693139        0.15888348729319
O           -2.01589396870929       -0.85852508406356        1.35392867409029
C           -2.68970384386780        0.39662319846433        1.23357205512875
C           -3.18765515791243        0.79310359541594        2.62793657582169
O           -4.45123541621498        0.21882294398222        2.87350080161029
C           -3.83140433819983        0.28131406349471        0.20937168271275
O           -4.49988155297799        1.50233300323318        0.01467427229535
C           -3.23988392670720       -0.14535954349933       -1.13858672594895
O           -4.23571714556004       -0.35082239967467       -2.10983418189461
C           -2.49101523558687       -1.46573348260201       -0.95097420776141
O           -1.82583181229369       -1.87428178321706       -2.11630185491328
C            1.59089892459381       -0.85425941871751       -1.42977163634039
O            1.12967274597439       -1.98348729008536       -2.12179416044183
C            3.11239509983529       -0.97077295037189       -1.26879620411890
O            3.78318814995978       -0.99904722220731       -2.49331825159024
H            5.27575612337874        1.16281301373490        1.51625933789870
H            5.52786291986721        1.96105323588725       -0.06433289566581
H            6.69498441386938        0.73711169946389        0.51820805789987
H            3.45666398356835        1.15093062419551       -0.88141889208072
H            1.33217332537021        1.35265742488957        0.29997760847024
H            1.57508634829275       -0.33787998917938        2.79855484176988
H           -0.04654149852210        0.09275382386983        2.19771230258862
H            1.95025858647618        1.93101267283155        2.95027277642174
H            0.99711106598780       -1.68048373857524        0.47451543541884
H           -1.00096902079428       -2.27955741249532        0.39519565348081
H           -1.97235639845719        1.15098760580517        0.88194535640937
H           -2.44215253260230        0.44466248964263        3.34774632036419
H           -3.25130358047910        1.88666205356245        2.67893454291833
H           -4.62629745064287        0.21859840257524        3.82396100666156
H           -4.52713854407923       -0.49696056472363        0.55113184387212
H           -5.06182921772534        1.67859132640597        0.78249272930030
H           -2.52916867167097        0.62499638953254       -1.47426761708973
H           -4.79992641190483        0.43666029839077       -2.13713865664991
H           -3.21331550830042       -2.23164813356200       -0.63094196668464
H           -2.46186846983171       -1.84277841164261       -2.84932626714146
H            1.35936017789007        0.06147839096407       -2.00045923018202
H            0.15811435242136       -1.93852572472306       -2.20462246809835
H            3.35728323467426       -1.91860515334767       -0.78022059865456
H            3.49991131254770       -0.25871578812416       -3.05141106103951
