48
 energy: -84.751990708295 gnorm: 0.000680899850 xtb: 6.7.1 (edcfbbe)
C            5.53188877492470        1.17666919925601        0.29012811364137
O            4.90780101896383       -0.01471448761811       -0.18205844956001
C            3.54383651159906        0.08073195167801       -0.38682649575576
O            2.88237950998287        0.21410750099629        0.85289953134738
C            1.48299281311194        0.37059053389194        0.71955877781955
C            0.91405382242955        0.49941525047020        2.13782397362764
O            1.24297519734059        1.71689639973369        2.74607543882777
C            0.82192169343304       -0.80203690248248       -0.03157261459212
O           -0.49402667981348       -0.40926876982521       -0.38459861381462
C           -1.56854699122197       -1.16475556122431        0.10631864225991
O           -2.15443488470983       -0.56055041292786        1.21682141286184
C           -2.71166028309977        0.77439777436583        0.95204656347722
C           -3.22774809290547        1.44311867691558        2.19589097727024
O           -3.94887999688117        0.36770773900801        3.03371081841879
C           -3.80811617428313        0.64313025752638       -0.11439211797700
O           -4.35110059527300        1.90445576853485       -0.41284630317281
C           -3.20911090487544        0.02432497718258       -1.37818915721273
O           -4.17706598986153       -0.18421080316061       -2.38149914808035
C           -2.61222842340956       -1.33914638483718       -1.01668464519664
O           -2.00735735453543       -1.96685627525576       -2.10928818907783
C            1.57946536799992       -1.19618413883940       -1.30753242565086
O            1.12758788936390       -2.47042245141578       -1.68326541531550
C            3.09672063953540       -1.21170408736728       -1.08142307798711
O            3.71045706880165       -1.36421175949005       -2.33295938221757
H            5.17277446181353        1.42838676134575        1.28807950151573
H            5.33363829752388        2.00526584871195       -0.39506333636954
H            6.59426692517069        0.95308996287566        0.31698398017001
H            3.29665204544268        0.95527041108348       -1.02560526847821
H            1.26730300149323        1.29094743233429        0.15269437234916
H            1.27851160437519       -0.34891273465718        2.73046823139993
H           -0.17431975944834        0.46435962407569        2.08823825821108
H            2.20580852440543        1.77617614009445        2.82442813510927
H            0.79422126535378       -1.68488419900261        0.62007596383288
H           -1.22575220942034       -2.15469260838780        0.43516843969455
H           -1.91935411458167        1.40766082374413        0.53038705180302
H           -2.36412916985920        1.68324871929828        2.83844158499580
H           -3.50320649069332       -0.49395004763245        2.89297850586376
H           -4.87903641122299        0.32411058568113        2.73546539851655
H           -4.60963073565941       -0.02981435339611        0.23571604449606
H           -4.32389929643912        2.42545490015968        0.41336854321212
H           -2.40428666982640        0.67544609157663       -1.75213001696120
H           -4.66631147466315        0.64388150382533       -2.49910513125368
H           -3.42368122656501       -1.97411687860004       -0.62015099849751
H           -2.60147314749065       -1.86969017582912       -2.87105406301882
H            1.34741450046625       -0.45663284635621       -2.08780549822634
H            1.55794126101471       -2.71832760521740       -2.51603921735558
H            3.34814902857272       -2.04913501904459       -0.41341555573153
H            4.67261185742649       -1.35859336964346       -2.21495012454183
