48
 energy: -84.744509732263 gnorm: 0.000458534124 xtb: 6.7.1 (edcfbbe)
C            5.60778719692396        0.78036053298140        0.74173185826741
O            4.91682544990854       -0.22006279304909        0.00108206322949
C            3.60591520845521        0.11421892709898       -0.32765927520963
O            2.82973643912312        0.20722954229947        0.82521658630081
C            1.43299117351799        0.59150664627432        0.50961280777465
C            0.63020175034876        1.07862039270512        1.66426313842265
O            0.36110487631940       -0.03742257710835        2.66934512820097
C            0.84005728476461       -0.60628929764257       -0.25883234947238
O           -0.54384333683126       -0.39586388491756       -0.46396012074721
C           -1.41340718205503       -1.34656724726181        0.07091619559334
O           -1.95585329469444       -0.92305733079726        1.30103992789195
C           -2.63843505958853        0.33401909009286        1.25809625460982
C           -3.22901287668232        0.55626650370316        2.65207781482843
O           -2.18283339531889        0.68222534547901        3.58134390833072
C           -3.76075493179490        0.34595811295470        0.20243260008523
O           -4.35188745844855        1.61275277754713        0.09814561506174
C           -3.22582086631067       -0.16872239935227       -1.14152170646704
O           -4.20636216772082       -0.22234278026934       -2.14750532509765
C           -2.58099780979429       -1.54715946962320       -0.91752533752783
O           -2.12818001732551       -2.12105500898050       -2.10984839147323
C            1.59356516369415       -0.82744646299347       -1.57188640966574
O            1.09560212017007       -1.99250962077521       -2.17692273448730
C            3.09386759913304       -0.98639675047705       -1.27213514398344
O            3.77967278652895       -0.96368789533357       -2.49754275394443
H            5.09322673873364        0.98220665267299        1.68270794939340
H            5.67583416594217        1.70263829417435        0.15705425894965
H            6.59703430982582        0.37281937225651        0.92741435164924
H            3.58106128720836        1.08976147029176       -0.86582095400913
H            1.50288715114746        1.44767591885160       -0.18013146881932
H            1.26549797418349        1.77626598418325        2.23454338392006
H            1.09279282318044       -0.68092096365572        2.74539700384978
H           -0.48889614721127       -0.46709436370691        2.39148911231644
H            0.98706019100552       -1.51809625615187        0.33765869387957
H           -0.91627086321680       -2.30389150174178        0.26022347735149
H           -1.89489781601651        1.11605890288344        1.04295767530773
H           -3.86018741954913       -0.30807268545258        2.90070174126757
H           -3.84811187631034        1.45831609629845        2.60978547092870
H           -2.53198478802209        0.99522767932085        4.42567781370666
H           -4.56894967545758       -0.31850321715412        0.53648961545452
H           -3.70455865524627        2.24482699026841       -0.24659015597697
H           -2.44947785112557        0.50552955617885       -1.52025984549133
H           -5.03071873335245       -0.58540648382934       -1.79129110022383
H           -3.30798404627582       -2.22339729220345       -0.43438166350781
H           -2.67535586758353       -1.77545314461725       -2.83524574317301
H            1.44976710274705        0.04389741947637       -2.22689920353898
H            1.55521589868770       -2.12600362287094       -3.01900801030840
H            3.24352027286195       -1.95033757021311       -0.76096670100961
H            4.72719217928479       -1.07681361363812       -2.33079607217169
