48
 energy: -84.850775348132 gnorm: 0.000521234718 xtb: 6.7.1 (edcfbbe)
C            5.53787253451338        0.99692261942169        0.53121763402639
O            4.89240821262279       -0.05841721002509       -0.17827569590349
C            3.54349051532190        0.13957044166172       -0.39517483464948
O            2.87104885126352        0.13184045332939        0.84720217757980
C            1.47840831924763        0.35634308667311        0.75988828421927
C            0.95235108819880        0.42470686157049        2.19441870321237
O            1.14748368396386        1.73467044731135        2.67339994429257
C            0.81348633265661       -0.76204576796856       -0.06214979828202
O           -0.55488066485936       -0.48153151917479       -0.30053354452617
C           -1.52033643634774       -1.38542993265037        0.18036512133958
O           -2.09883757763772       -0.93601470837995        1.37045426823001
C           -2.82493711009037        0.28686392362957        1.25525527122523
C           -3.50427543730555        0.53794801324033        2.60293381024248
O           -4.50019666862480       -0.43542294811239        2.81266621927171
C           -3.86348428211494        0.25662137534103        0.12674941993515
O           -4.37577607072863        1.55933558651391       -0.01188339559581
C           -3.22717633295711       -0.22667628682410       -1.18797919598099
O           -4.17929714355113       -0.24668314019630       -2.22244893221965
C           -2.57282317173529       -1.58924752459357       -0.92392683766735
O           -2.02669801939049       -2.18540774284091       -2.06512338806694
C            1.49847590066814       -0.85464716456290       -1.43404767446543
O            0.94423690335149       -1.93955800221571       -2.13434540768431
C            3.02039742704779       -1.00022972729657       -1.28359198041470
O            3.63826724564828       -1.06391666267282       -2.53799280308531
H            5.09042737181488        1.12279375764874        1.51791902940311
H            5.46214930075531        1.93273811451715       -0.02993960719439
H            6.57572428032785        0.69054188285425        0.61835057899100
H            3.36075483470756        1.12007443939375       -0.89127583442943
H            1.28096162956692        1.32206572932190        0.26951201336458
H            1.51662667583839       -0.30387211654856        2.78725709835235
H           -0.11224071155510        0.16057757137291        2.20211658339913
H            0.99581736870984        1.75632316563229        3.62880863971153
H            0.92645376269166       -1.71771394201083        0.46233880953068
H           -1.05814158200257       -2.34915283932262        0.43262313093168
H           -2.12670196834736        1.11033757917639        1.04694815769914
H           -2.74020073913227        0.48257326339529        3.38590570584969
H           -3.93861850046899        1.54360553811070        2.56879857233493
H           -4.91241199298115       -0.28142256249356        3.67458064353358
H           -4.66749182056201       -0.43962961890164        0.41414169411212
H           -4.84630779088467        1.60489756986592       -0.85987368984583
H           -2.46044760192958        0.49077895249125       -1.50101723004613
H           -4.69256802298763       -1.06634172825771       -2.18241213280014
H           -3.33396572144589       -2.28408595849293       -0.54583854243580
H           -1.12566365737295       -1.85110037293904       -2.21925523047201
H            1.27941312466407        0.08097486119297       -1.97680522833723
H            1.55984909983073       -2.19910287386829       -2.83991006092449
H            3.25481354296600       -1.94719872995912       -0.78642843840934
H            3.67024101988223       -0.18781315779308       -2.95062601635705
