48
 energy: -84.845003933885 gnorm: 0.000556435238 xtb: 6.7.1 (edcfbbe)
C            5.74652307064126        0.83812114293140        0.58414118777222
O            5.06255476033210       -0.19131196578100       -0.12505862290990
C            3.73151445890585        0.07675364396697       -0.37562033517181
O            3.02849660422294        0.04068069296443        0.84842940879641
C            1.64195335546317        0.28628130223230        0.73216837642679
C            1.07729507647660        0.32599380276652        2.17272860402596
O            0.74636414766879       -0.93841990914292        2.68780095471750
C            0.97002179744830       -0.79574243976987       -0.13560012643177
O           -0.39256087962254       -0.45175156468414       -0.35335610886952
C           -1.37008175557143       -1.34146041364545        0.10192449575363
O           -1.90639242006279       -0.90132182603709        1.32625652505660
C           -2.56257149076083        0.36750717850107        1.25116045911341
C           -3.01521040185329        0.71013958421752        2.68112209783375
O           -2.02569931360406        1.37501741915779        3.42343975115343
C           -3.72685722271928        0.32262482086436        0.24214817482883
O           -4.29279543241104        1.59355577579327        0.02971813620812
C           -3.19003297343364       -0.14864562943481       -1.11810659379950
O           -4.22654827691695       -0.32448737784220       -2.05145751182951
C           -2.49037291824719       -1.49527734647925       -0.93838259316906
O           -1.94257705227616       -1.99055072718927       -2.12344889766760
C            1.67686958908841       -0.87197050015690       -1.49970842550973
O            1.20263635804880       -1.90752951302680       -2.31897098029180
C            3.20329329656910       -0.98836407856387       -1.34159646190877
O            3.83633482973432       -0.81094920024882       -2.57981877590257
H            5.29469868962601        0.98991271839799        1.56577524629126
H            5.72090086189643        1.77082620336350        0.01349689342653
H            6.76849212082796        0.48582309229481        0.68618701865476
H            3.60760519367520        1.07825338548783       -0.84073652939391
H            1.48325632152634        1.26430560621348        0.25181144950134
H            1.86849130656012        0.73008574312461        2.80931548024457
H            0.21200993029448        0.99003905964463        2.20834603196015
H           -0.19234024713816       -1.11217652312704        2.51158233346391
H            1.05390843124089       -1.75864463060976        0.38298351228325
H           -0.94164647422204       -2.32931320590809        0.30948831950050
H           -1.84492304869081        1.12023627844115        0.89376666362698
H           -3.21274758985472       -0.22914196504027        3.20195477375094
H           -3.93495693134717        1.30099469756584        2.65068667065895
H           -1.99833299210797        2.30841485778533        3.16995912970439
H           -4.48171791179312       -0.39803356896280        0.58544866298261
H           -4.89993873844204        1.82600254584342        0.74537480347713
H           -2.45863053529529        0.58571026020880       -1.48580999808178
H           -4.71185990312971        0.51033740732978       -2.13208249145009
H           -3.22284291408013       -2.21095941573626       -0.52717636017828
H           -2.59620067456101       -1.87481316636789       -2.83113362754524
H            1.44953482647982        0.04844707001891       -2.05003092259722
H            1.27672219973421       -2.75802296418746       -1.86251159646214
H            3.46260512056797       -1.96901261824153       -0.91144548424210
H            3.36869776095511       -1.35108772284236       -3.23918176925998
