48
 energy: -84.862750860686 gnorm: 0.000274650021 xtb: 6.7.1 (edcfbbe)
C            5.56959472198023        1.02364154688204        0.32694715183915
O            4.90423402385074       -0.09602195854618       -0.25339931178729
C            3.54112845665769        0.06531799486518       -0.41634028478137
O            2.91932333392710        0.07654497663357        0.85093604133400
C            1.51610443233417        0.25465538562664        0.81012128262966
C            1.03604626885163        0.18139023495040        2.26890770905008
O            1.38319184035678       -1.03798573719463        2.86749388111917
C            0.83026204670372       -0.83053278517211       -0.03796031205402
O           -0.51796421296031       -0.46919062390683       -0.29215252532293
C           -1.53964518238666       -1.31900587943558        0.16145363211169
O           -2.11156441879486       -0.84782662675272        1.35170740682148
C           -2.70372823818533        0.44139811567536        1.22541664833837
C           -3.26520076375963        0.83324075807760        2.59899253786102
O           -3.47486853492406        2.21381151726987        2.71293544965193
C           -3.79374440235969        0.44429032949289        0.14409223223695
O           -4.30638395411899        1.74796246069451        0.03739264698083
C           -3.20245267248868       -0.04519763016613       -1.18277698787139
O           -4.23452439812567       -0.08022482243136       -2.13917687845083
C           -2.58580578902169       -1.43347698273049       -0.95764103861193
O           -2.04686811871655       -1.95555550338572       -2.14250093351635
C            1.50999274517561       -0.96400748096601       -1.40798176173326
O            0.92951340910494       -2.05831378036567       -2.07112699145324
C            3.02365499641054       -1.11442626327118       -1.25327636555566
O            3.58328748692737       -1.12971003881158       -2.53860738367374
H            5.18769579539144        1.22084983413395        1.32900996390753
H            5.43438731826875        1.90930200391594       -0.30013387561213
H            6.61857240273435        0.74641670425533        0.36904157848175
H            3.31376782471259        1.01780569883811       -0.94070281164284
H            1.26914089587752        1.23676980087855        0.38065165083003
H            1.45958214672308        1.02510793715787        2.82542072426697
H           -0.05274052226753        0.23885457143147        2.29503579630769
H            2.34926899742166       -1.11337167735274        2.86732458540027
H            0.88159127738788       -1.78961374585736        0.48995062617902
H           -1.14278039439549       -2.31146491081388        0.41100963432861
H           -1.93587345214644        1.17494239518512        0.93763384053822
H           -2.53758720349615        0.55863573898258        3.36592462420056
H           -4.19275408817237        0.27527804546561        2.78179468011882
H           -4.01567363505308        2.50257933985179        1.95857323303573
H           -4.59395761079913       -0.25495862384705        0.43711735917012
H           -4.87112040528347        1.78797352045121       -0.75001690908870
H           -2.40956664498369        0.64747087387543       -1.50555531629882
H           -3.94211565736008       -0.63182186771883       -2.88044268083734
H           -3.37725705741309       -2.12007062210788       -0.63097386198704
H           -1.08434866716792       -1.80449531208268       -2.17012966476974
H            1.31638741575615       -0.04090687938858       -1.97784093399794
H            1.45385320987645       -2.24693100616492       -2.86586138219372
H            3.25254909708549       -2.04265837141755       -0.71045313766769
H            4.54833788009730       -1.18081568910651       -2.46841449289450
