48
 energy: -84.855914677588 gnorm: 0.000405818104 xtb: 6.7.1 (edcfbbe)
C            5.63554378456644        0.94700923861752        0.43620549832205
O            4.92773228265166       -0.07036652862959       -0.26740368926461
C            3.57592590279908        0.16555912602797       -0.43796433293843
O            2.93013649979672        0.14662359026182        0.81813063746940
C            1.52855917148515        0.34019002212369        0.75453650967013
C            1.00496050021872        0.30579090171730        2.19911901239756
O            1.12411109647117        1.53880056012834        2.85329339390893
C            0.86038769403896       -0.74649314889037       -0.10734609337523
O           -0.50952647334918       -0.44801985014601       -0.30946112245580
C           -1.47092952544565       -1.36649639921829        0.14764340852467
O           -2.02278278228271       -0.96157818700056        1.36960641145267
C           -2.70188893817717        0.29450116581175        1.29914480749415
C           -3.20634577633753        0.65260118234154        2.71158493544033
O           -4.50510247173658        0.20540747810645        2.99312808164930
C           -3.83550043785088        0.21844827704713        0.27031236078135
O           -4.50528150805445        1.45285256266935        0.23278192757031
C           -3.24655774840417       -0.15455201957014       -1.10214153822925
O           -4.25262864552502       -0.14604640569281       -2.08626019640888
C           -2.54615067198179       -1.51124001812182       -0.94621847724279
O           -2.01549349258524       -2.00893604823130       -2.14038197978078
C            1.52365978427251       -0.78971695903709       -1.49130883175629
O            0.94906684399554       -1.84316427980548       -2.22026094875888
C            3.03734766766096       -0.95088343310436       -1.34638839720301
O            3.59683087813738       -0.89018105871949       -2.63019143926161
H            5.30055530842386        0.99873934653189        1.47215206479491
H            5.49130520098111        1.91535025362478       -0.05024582021981
H            6.68014325908066        0.65302501801719        0.39213887958252
H            3.40188394391239        1.15176850732387       -0.91981466545329
H            1.30179581552394        1.32006320138790        0.30654865654687
H            1.54400169303231       -0.48441700013574        2.73419758532040
H           -0.05959070598319        0.06853288882719        2.19043311119334
H            2.06056731662417        1.74365946029669        2.98538315274514
H            0.97571137019671       -1.72306570615029        0.37658277770589
H           -1.01371887097703       -2.34441155440463        0.34666542896783
H           -1.98775595330127        1.06368762538405        0.97580325703248
H           -2.54915171834138        0.16402000639046        3.43362730738741
H           -3.13777986557265        1.73766647763797        2.83618459683946
H           -5.13129313512974        0.74552641536575        2.48792773977154
H           -4.53020582930325       -0.58086608731503        0.57913612981896
H           -4.97792824870566        1.50744724958720       -0.61377938109390
H           -2.51374558968619        0.60538294912986       -1.39903827243114
H           -4.57950914866762       -1.04406541256377       -2.23662251378196
H           -3.28290508846748       -2.24943781436472       -0.60167060148426
H           -1.10357155038673       -1.68983448873062       -2.26185030734743
H            1.32472410361467        0.16687537377394       -2.00022262236767
H            1.46890009324576       -1.97351862948770       -3.02963913612069
H            3.26089386464034       -1.91252359097984       -0.86179620466449
H            4.56046510063400       -0.96848027702468       -2.56441405313498
