48
 energy: -84.855849509845 gnorm: 0.000339025269 xtb: 6.7.1 (edcfbbe)
C            5.74855796468567        0.83802619742020        0.60667288600328
O            5.04805898330443       -0.18003388702354       -0.10494770632308
C            3.72350372126535        0.11579679801359       -0.35961730392369
O            3.03050103927655        0.12902797373580        0.86912405043782
C            1.64696781801599        0.39744884539136        0.76783370511395
C            1.11279241828532        0.47522183418610        2.20706350898887
O            1.64913695536393        1.55232640160527        2.92648271221160
C            0.96882821166009       -0.71149378494463       -0.05414168496811
O           -0.40022378378815       -0.42293141653159       -0.29936535222692
C           -1.36076204066079       -1.32621941012222        0.17892823233980
O           -1.94472386486578       -0.88485350166233        1.36890976654750
C           -2.64303520326361        0.35258648623252        1.23524364880329
C           -3.13607299914352        0.75642008642572        2.62379280796292
O           -2.10757709422322        1.47450690836118        3.26623585230685
C           -3.78760568921736        0.21679449627072        0.21908650875485
O           -4.52194228830065        1.40314729799048        0.07192510296389
C           -3.20817222285346       -0.24533534538086       -1.12744246943503
O           -4.21902836649543       -0.50237135002856       -2.07245544042323
C           -2.41901298558426       -1.53981420715867       -0.91797511196491
O           -1.75509994362963       -1.95371295564375       -2.08197969345499
C            1.64720640563590       -0.83345998970882       -1.42992103110536
O            1.19544363493702       -1.96433967928214       -2.13121091954591
C            3.17158063975841       -0.95844651564519       -1.30527011137117
O            3.78821827998119       -0.78517345558166       -2.55144123826331
H            5.27506020891157        1.02214043934799        1.57264933296268
H            5.77041274410926        1.76083765357439        0.01995100691283
H            6.75441007098348        0.45241089678975        0.74216682511928
H            3.62528032776232        1.10781412078238       -0.85105256846832
H            1.49355659375345        1.35861378657298        0.25000235251577
H            1.43551277377854       -0.42321432492139        2.73671458712091
H            0.01926834476038        0.51499202441032        2.19477601121740
H            1.31127734819039        2.38670766704717        2.57124805340239
H            1.07322213070448       -1.66251838960225        0.48132193527248
H           -0.89787790406488       -2.28991322298717        0.42636902245926
H           -1.93979461121944        1.11978958191844        0.87855535119534
H           -3.38667954535094       -0.15817287900225        3.17084832850393
H           -4.03230656522355        1.37952347277758        2.51151775265268
H           -2.34975278087123        1.62648805911619        4.18998820080117
H           -4.50346963762756       -0.53269324660050        0.57467368213934
H           -3.92595656301964        2.13435584150913       -0.15149098387962
H           -2.51581887733315        0.52180555137950       -1.51116871943716
H           -4.88807700442762        0.19709035256782       -2.01404609609409
H           -3.11480344298041       -2.31888651383727       -0.57267309646177
H           -2.40404729180698       -1.98450559214988       -2.80341418241795
H            1.41973791383109        0.08250271284008       -1.99885757653551
H            0.22276132923648       -1.93906469475997       -2.20102785605296
H            3.41869762984362       -1.93962536088755       -0.87643514012712
H            3.45598921863063       -1.47113274641645       -3.15226096689435
