48
 energy: -84.856032685400 gnorm: 0.000823223914 xtb: 6.7.1 (edcfbbe)
C            5.60608881201983        0.85867466195092        0.59782867870961
O            4.94443550764396       -0.18005394384921       -0.12058529423245
C            3.60866648497694        0.05882807691633       -0.37169386362375
O            2.89796658944569        0.05973305067568        0.85166747728164
C            1.51812424625514        0.32898902828035        0.70343624608792
C            0.89360320882310        0.46432983995842        2.10215453650978
O            0.28203797302139        1.72820932214367        2.21775725983934
C            0.86825478351237       -0.78074276439647       -0.14180462809814
O           -0.49975485886133       -0.50114061877840       -0.37318898495545
C           -1.45447634286864       -1.42109297295741        0.08787453911226
O           -2.03200568750439       -1.01181465262110        1.29507276472077
C           -2.67024224616163        0.26182192056747        1.22207931934895
C           -3.20956064590722        0.58576986105546        2.61141250790152
O           -2.13248849007879        0.89505944266613        3.47019147552487
C           -3.79146239322955        0.24819976007305        0.17461430782948
O           -4.34611263135237        1.53510839301574        0.10318501764987
C           -3.21569450029110       -0.19664884762915       -1.17585980304770
O           -4.27279810225918       -0.26342017981338       -2.10307531423294
C           -2.52552169725532       -1.55934721345113       -1.00664975194866
O           -1.99488774857051       -2.02244997320036       -2.21957657506019
C            1.57283701978282       -0.86513408174560       -1.50074472779954
O            1.01015487594653       -1.92849475884543       -2.22848369101643
C            3.08514766745094       -1.04923367605287       -1.30168128555754
O            3.74626137956303       -1.09923874348533       -2.53453226108264
H            5.15444844211071        0.99084677832949        1.58186198697758
H            5.55440720639541        1.79795371473431        0.03954258487726
H            6.63669420441125        0.53060214506746        0.69194176865730
H            3.46877967477448        1.05136520971881       -0.85828495686567
H            1.37803637103931        1.29098813005553        0.18488448112879
H            1.70473032849104        0.36677453470947        2.83583287418010
H            0.16474928299952       -0.33308479005035        2.26857525480836
H           -0.50926677570149        1.64007498647279        2.78047503291188
H            0.98297686436856       -1.73897154761785        0.37891848681390
H           -0.99733091714622       -2.39678686722848        0.29751930863514
H           -1.93463697028557        1.02396575702790        0.93344124862619
H           -3.75588468907986       -0.29093995454214        2.97689542125604
H           -3.88832098425326        1.44018093142929        2.51258964091740
H           -2.47655954767106        1.03740999054334        4.36407410190756
H           -4.56127028136058       -0.48142372221055        0.47538280363740
H           -4.92405736206021        1.57174645586753       -0.67512534930418
H           -2.46670092683666        0.54031824402317       -1.50519549437487
H           -3.96812817717883       -0.76589038611772       -2.87398159778066
H           -3.27269395725107       -2.29427518196127       -0.68218344038804
H           -1.05650948623241       -1.77188325128069       -2.29140927269464
H            1.39113781992501        0.08168160306491       -2.03688374094637
H            1.63348102109580       -2.19166943400121       -2.92573692447394
H            3.28028412983531       -2.01214701367389       -0.81825688208384
H            3.81674553213942       -0.21424923409356       -2.92278435648270
