48
 energy: -84.839774812309 gnorm: 0.000606086534 xtb: 6.7.1 (edcfbbe)
C            5.62975827331069        0.99940342413373        0.57350726664091
O            4.97568529447769       -0.07910734056025       -0.09032956673246
C            3.63522489353443        0.13731037750366       -0.34063632363155
O            2.94113010445491        0.09080378555434        0.88866116378893
C            1.54837311894353        0.29911108351169        0.78162298859153
C            1.00939800249363        0.35010946563056        2.21550353171478
O            1.07878491656040        1.67979322212341        2.67715831380945
C            0.89305997851004       -0.81530355015818       -0.06002576132454
O           -0.46885673238634       -0.49540660510406       -0.30090707848920
C           -1.45764196593268       -1.37141966873659        0.16191688917301
O           -2.02825897880460       -0.91535587927392        1.35954773324856
C           -2.66986416973534        0.35673783906659        1.26103100761515
C           -3.20224943014196        0.67790206170965        2.66999016053631
O           -4.12016479063540       -0.25576477821021        3.17310479147230
C           -3.76746972156216        0.37452421883061        0.17388346745874
O           -4.23363887094484        1.67811897104068       -0.06705794160619
C           -3.18912744441497       -0.15274259171826       -1.14765243644923
O           -4.13343630677750       -0.21762215869403       -2.18319906718573
C           -2.55523727730274       -1.52744427931162       -0.90255328305839
O           -2.02117019575676       -2.08650069691524       -2.06706137252193
C            1.60466036120402       -0.90510027681715       -1.42354156286153
O            1.15831582662161       -1.97307500920467       -2.21582438283708
C            3.13602633186937       -0.96631901703190       -1.27878743134202
O            3.75003182101483       -0.79333023684361       -2.52701992523229
H            5.16425441418255        1.18985873351767        1.54198528956349
H            5.58791191701443        1.90246438045254       -0.04185868459204
H            6.65852826151286        0.67650495248844        0.70090625263283
H            3.47154413959340        1.12392351767477       -0.82164137590455
H            1.34609829717083        1.26486607618476        0.29448381235594
H            1.63257778628524       -0.31713603272697        2.81801015265990
H           -0.02777188663338       -0.00536736845913        2.23152715276839
H            1.12643832287727        1.68851521276865        3.64286658194670
H            0.97851632117599       -1.76991608836859        0.47436343398675
H           -1.03554040754406       -2.35502706543015        0.40354377261048
H           -1.92633791954269        1.12008802814474        0.98801788770812
H           -2.35779233490455        0.64762158974909        3.35978277096988
H           -3.62081375394173        1.69092939773223        2.67099802971671
H           -4.94414667477001       -0.22985632921453        2.66713989513495
H           -4.59376756978659       -0.29070935466370        0.47256846988794
H           -4.71404175053523        2.01913514049661        0.70031294354537
H           -2.41604361251151        0.53887318574302       -1.49736187597582
H           -4.93044948971429       -0.67996016467074       -1.88232464657869
H           -3.31514784005982       -2.20842006046378       -0.47874141643405
H           -2.50412177356905       -1.72537736180517       -2.82886558206569
H            1.34459735272081       -0.00396235214200       -1.99102186971940
H            1.26026875037717       -2.81046916368072       -1.74083487674613
H            3.43413591132408       -1.92884522355187       -0.83284800800988
H            3.29232850328799       -1.35820203194488       -3.17246726494728
