48
 energy: -84.854778592013 gnorm: 0.000282623144 xtb: 6.7.1 (edcfbbe)
C            5.65707709922128        0.76520451028697        0.68548123163726
O            4.93475651670170       -0.26187268564546        0.01067130969915
C            3.63478125672539        0.07193558212076       -0.31038162601182
O            2.88156677648623        0.12609225042846        0.88658771010629
C            1.51478813589085        0.42543339281456        0.68693313280250
C            0.86860738972656        0.64474713522326        2.06183326591027
O            0.17602708376719        1.87209175097347        2.03684199605058
C            0.87117086878913       -0.70197538555990       -0.13428007120979
O           -0.49619058126634       -0.43255266943147       -0.38928786118006
C           -1.45088830218861       -1.34475949545750        0.07723882834610
O           -2.05896409455743       -0.93368366799814        1.26800750847598
C           -2.73738567344614        0.31754957212487        1.17984751576326
C           -3.36803807497614        0.56440055363493        2.55994333484736
O           -3.84186225173289        1.87238039229963        2.71739823501983
C           -3.81495078023262        0.29022814255332        0.07615242368491
O           -4.47981210416171        1.52354661440884       -0.02857590136135
C           -3.18798957538524       -0.15240948950060       -1.25211783458603
O           -4.10847471862897       -0.20988578156918       -2.31247507961101
C           -2.49540788842591       -1.50813728627781       -1.04166702738465
O           -1.83459234906137       -1.94342659724913       -2.20107626350543
C            1.58814152147930       -0.83948732140933       -1.48392160970173
O            1.14542619411731       -1.96910008343951       -2.19454226176917
C            3.10221782864842       -0.99175457503291       -1.28124516107669
O            3.78876007392968       -0.83064310205972       -2.49187093064250
H            5.17470437580677        1.01259618899142        1.63252972541805
H            5.72109230866047        1.65752490512797        0.05650825993318
H            6.64675481538944        0.35353656901289        0.85867202655508
H            3.58909844389570        1.06101507670844       -0.81320882905144
H            1.41704853526114        1.36622676283455        0.12115585251320
H            1.67893560543329        0.65412913001007        2.79718040211826
H            0.17866266146666       -0.17641373766121        2.29474375673909
H            0.01401434195638        2.17248868617280        2.94218400765430
H            0.98090311740486       -1.64303739298976        0.42058219969910
H           -0.99315856026948       -2.31526178831830        0.30772759202640
H           -2.00953246577122        1.11324061861453        0.96450487382141
H           -2.60469821173138        0.40948532196735        3.32416792553897
H           -4.16874763694735       -0.17029870497606        2.71868908870160
H           -4.48019042279377        2.05566472880116        2.00695377397092
H           -4.58950672974930       -0.43362232877862        0.36366630773735
H           -3.89983504370041        2.17408920562040       -0.45056096977301
H           -2.42271396194759        0.56930463699238       -1.56172192680984
H           -4.93651946316041       -0.61643339597151       -2.01752001629774
H           -3.23304289934385       -2.25918431932209       -0.71806435964027
H           -2.40302701690769       -1.74391795379943       -2.96431933539376
H            1.40147794098764        0.07554285821180       -2.06807263706621
H            0.17379736463646       -1.94107097797555       -2.27906786293246
H            3.30706069820384       -1.97824338367810       -0.84188221916702
H            3.47550185811311       -1.50861144878251       -3.11152355125153
