48
 energy: -84.854130866611 gnorm: 0.000773547582 xtb: 6.7.1 (edcfbbe)
C            5.72152550109290        0.81172663665585        0.53261045113016
O            4.97887387735480       -0.20350714821469       -0.13842790537878
C            3.65766709593878        0.12136946436709       -0.37254374489290
O            2.98022316854606        0.12613807110324        0.86729558861065
C            1.59825972925540        0.41467083932972        0.78966308065990
C            1.08532750411240        0.49779801876776        2.22870781941753
O            1.34151006143756        1.79379304032476        2.71540469138091
C            0.90310451794165       -0.67829219654168       -0.03563870640591
O           -0.47128045843138       -0.40208432724166       -0.25315223750229
C           -1.42198697496367       -1.31522653214040        0.22545296631637
O           -1.99799492869946       -0.89574384490386        1.42875237234648
C           -2.71602187561797        0.33630257724170        1.33943300485663
C           -3.36028796156595        0.56700553380674        2.71282821267474
O           -4.19856406821544       -0.49323180792846        3.08969142209797
C           -3.78650630079130        0.30975071553776        0.24153240574312
O           -4.29584145318210        1.61327765393691        0.13309007344277
C           -3.19054527515887       -0.16412968920108       -1.09093099372838
O           -4.24850596159993       -0.26705994937057       -2.01205853236369
C           -2.49067177896568       -1.50869008982165       -0.86994983695617
O           -1.90044250536947       -1.93433621324974       -2.07623943485430
C            1.55309800023601       -0.74150565809513       -1.42923432324245
O            1.03283156060395       -1.80319827316816       -2.18672628596962
C            3.07137713816381       -0.92476765175618       -1.33067100598372
O            3.68029885037935       -0.74602262541182       -2.57944345118328
H            5.27401330149179        1.03358140605854        1.50286787186213
H            5.75450115131223        1.71963201060829       -0.07626266309066
H            6.71979708323924        0.40304575525048        0.65633332943060
H            3.57032370682659        1.12257612104749       -0.84466028753535
H            1.44049139471599        1.38924741427691        0.30326895609560
H            1.61894372538162       -0.25987481037395        2.81205936296073
H            0.00945183725100        0.28576390549959        2.24244426833502
H            1.23468582403028        1.80824477501804        3.67674694535907
H            1.03096859710491       -1.64296377680605        0.47056969037221
H           -0.94605907133019       -2.27653352085826        0.46649191657988
H           -2.02346470603850        1.15801484178983        1.11350106082521
H           -2.57098976373269        0.71801596311845        3.45743952613862
H           -3.98420794023712        1.45952559704405        2.65468948737445
H           -3.66278538455898       -1.29831061582929        3.14034781437205
H           -4.58461132903014       -0.39118385073603        0.53290364065093
H           -4.94357679624173        1.62716546192231       -0.58820699644450
H           -2.44462903214686        0.56760992753859       -1.43213575774485
H           -3.89858430213997       -0.57126300630596       -2.86226595884796
H           -3.23397863180242       -2.22836599557292       -0.50922720020255
H           -1.88881931645142       -2.90161449994630       -2.12071274150561
H            1.35526995432400        0.21778810754800       -1.93323058488083
H            0.06909937379620       -1.67337556487890       -2.28599997622814
H            3.29644708673858       -1.92017840396874       -0.92266263730767
H            3.30587077723665       -1.39517379113991       -3.19655369245949
