48
 energy: -84.851382850993 gnorm: 0.000394104551 xtb: 6.7.1 (edcfbbe)
C            5.65728635281386        0.89459747818368        0.62974169848229
O            4.97761601523082       -0.15121487632793       -0.06097187184588
C            3.64904962993659        0.10967318236003       -0.32781255832614
O            2.93521455967879        0.14437707298693        0.89350013591399
C            1.56181947842563        0.42840693247283        0.72688682162429
C            0.92616247132005        0.61196490388708        2.11392801528459
O            0.26151651821229        1.85320798241006        2.15473153678920
C            0.91077940101480       -0.69564670153339       -0.09449895471943
O           -0.45875925146399       -0.41414554224251       -0.32899479262731
C           -1.40981485951988       -1.32389574962502        0.14826224342107
O           -1.99333162277246       -0.91150433852862        1.35058959245338
C           -2.65205165256414        0.35107290072974        1.26887364548375
C           -3.18103099768285        0.69010181499777        2.65953343154813
O           -2.10331356964439        1.03285923535842        3.50308924203675
C           -3.79250923813102        0.28922942101737        0.24242010627420
O           -4.39935855580563        1.55172833484730        0.16045694059796
C           -3.22364209232090       -0.15442493097651       -1.11259410688232
O           -4.22399058614881       -0.23570510883242       -2.09863602092457
C           -2.48081885065740       -1.48488891057512       -0.94817285181344
O           -1.83953139306813       -1.88294452954475       -2.13157773147164
C            1.60848001785953       -0.84265318725687       -1.45739454645779
O            1.13259676272864       -1.96327925544334       -2.15541114769266
C            3.12430346177873       -1.00193208775539       -1.26233980287030
O            3.82226379931079       -1.02611318506342       -2.47159404538654
H            5.19542683941459        1.07349749090993        1.60182970678912
H            5.63967448964452        1.81390474433268        0.03715576189719
H            6.67705276449270        0.54233166059105        0.75082386559659
H            3.53338178233139        1.09762910481969       -0.82872385017639
H            1.44043060348746        1.37810891743460        0.18059766489618
H            1.73718675000011        0.58822426162738        2.85336014755885
H            0.23012136144312       -0.20478868298831        2.32241336048566
H           -0.49367614756439        1.77920637566109        2.76660929346516
H            1.02177632064829       -1.63788865759413        0.45716070257570
H           -0.95222332024648       -2.29730791004149        0.36649025461648
H           -1.93427829453577        1.11993588707905        0.95595409762217
H           -3.70831799101303       -0.18870312243428        3.04713762082336
H           -3.87548042598366        1.53066384652370        2.55240393809173
H           -2.44470541901177        1.20409494422397        4.39241620098755
H           -4.52970208045669       -0.45981565000115        0.58345846750345
H           -4.84273164722058        1.63091090666097       -0.70012762069828
H           -2.51405669044543        0.60029721908927       -1.46809341506827
H           -4.89171529527444       -0.89017072923326       -1.84045270979491
H           -3.18855985974162       -2.26282985307956       -0.61771971056184
H           -2.41981305605774       -1.67499245666926       -2.88264514164453
H            1.41324287147986        0.07599811036596       -2.03639306996403
H            0.16034557740779       -1.91243407186144       -2.22651225901002
H            3.32954505290930       -1.96692340526513       -0.78936382862530
H            3.60803701549694       -0.24270878207919       -3.00068547271994
