48
 energy: -84.851989358143 gnorm: 0.000335276815 xtb: 6.7.1 (edcfbbe)
C            5.69002231762149        0.65536699547268        0.69855590828399
O            4.95109899566039       -0.32800550884982       -0.02116175431744
C            3.65192407012503        0.03528441352962       -0.31326994140613
O            2.90440876785761        0.02474751933927        0.88816139315337
C            1.53958766288408        0.34113989951586        0.70626074205084
C            0.88660444665839        0.51650565089491        2.08612626020122
O            0.19686351359934        1.74429432598613        2.10785820891755
C            0.88469940490742       -0.76347616853029       -0.14326679874134
O           -0.48904492850586       -0.49566120239234       -0.35849877818618
C           -1.43328794579564       -1.42740175721916        0.10352525681746
O           -2.00461636997736       -1.03497967929014        1.31849984532246
C           -2.66234736701847        0.23040756133611        1.25936826028496
C           -3.21496303873317        0.52351830750280        2.65186031915845
O           -2.16713251050151        0.94891085668197        3.49682470102795
C           -3.78898697543985        0.21121289742601        0.20560199065540
O           -4.46292023387597        1.43877903503013        0.14624662921027
C           -3.20060851645253       -0.20582779273810       -1.15803475405594
O           -4.15598358591032       -0.19213676444046       -2.18311406270496
C           -2.51456907780080       -1.57561048645989       -0.98835654999594
O           -1.97977643777411       -2.09018421302009       -2.17278838704564
C            1.58605973790205       -0.80384787536980       -1.51073981540067
O            1.05473055557221       -1.78772961738048       -2.36051890999243
C            3.10445759948549       -0.96905655001100       -1.33985811575141
O            3.77328417262361       -0.73455046746129       -2.54924949168748
H            5.21839947897437        0.85890089618140        1.66133113445020
H            5.75722570955581        1.57822399815122        0.11576427342383
H            6.67712843229892        0.22603445712638        0.84072012532341
H            3.61123531135069        1.05103091793766       -0.75916141306464
H            1.44392712956743        1.29985760697038        0.17300633159930
H            1.68973274227846        0.51285564621431        2.83443160912999
H            0.20355860999816       -0.31253719042035        2.29222574172930
H           -0.52564756150235        1.68265958165002        2.75884975434971
H            1.01459676047882       -1.72199186607076        0.37583976428108
H           -0.96879807123075       -2.40099453570092        0.30587752572329
H           -1.92807166647333        1.00149985100620        0.98961049954557
H           -3.67045088375895       -0.39627879255760        3.03462093128705
H           -3.97781714170205        1.30432635737670        2.55448346689392
H           -2.52195294818266        1.09514689220763        4.38526972036961
H           -4.54718770233017       -0.51964594560156        0.51299264744675
H           -3.90666158821312        2.09969182292667       -0.29135440656505
H           -2.44384443584441        0.52591849283791       -1.46496895961223
H           -4.82816911968002       -0.86994992591717       -2.02446294527383
H           -3.24989399508487       -2.31385666385206       -0.64847477307452
H           -1.20303099351673       -1.56973920103465       -2.43892829018017
H            1.39106700361700        0.14603711359425       -2.02156393482428
H            1.21507723461822       -2.67124791911784       -1.99581646993598
H            3.33360629649366       -1.97694723461722       -0.95869385402827
H            3.35289514884531       -1.26246569788814       -3.24807173528859
