48
 energy: -84.849697907101 gnorm: 0.000606245684 xtb: 6.7.1 (edcfbbe)
C            5.35245788163607        1.48188826927663        0.26936912727310
O            4.85676159228098        0.26215126675437       -0.27746323252818
C            3.47965507931726        0.19607191554564       -0.38653249211634
O            2.91173272286328        0.16394511465729        0.90385104036039
C            1.50039360161250        0.20437812765587        0.91622030383427
C            1.15450097287363        0.11091173182434        2.41739329838498
O           -0.16499032599981        0.43190997069841        2.74794547980885
C            0.85666523874609       -0.92274766261992        0.07268467633483
O           -0.45765131517161       -0.52163534225305       -0.31053547803263
C           -1.54667122688978       -1.29724142834263        0.09582137832940
O           -2.17851446875714       -0.71842462844943        1.21447751692997
C           -2.72952544642673        0.58016838547070        0.95061815359970
C           -3.29749487598640        1.14366680662638        2.26525632388894
O           -2.48126360277934        2.12550803529250        2.84648865364574
C           -3.79304770742186        0.48895925352292       -0.15276998851895
O           -4.39576196065980        1.72517717858567       -0.42640926403620
C           -3.15411313144322       -0.11090724872954       -1.41563801133946
O           -4.10378788275764       -0.31075519554996       -2.43452783129263
C           -2.54941886652508       -1.47018561448293       -1.05736762194633
O           -1.89458045447648       -2.07669141896453       -2.13182481545188
C            1.61308957560573       -1.23303450177677       -1.24794761385120
O            1.23525817055248       -2.48439933944789       -1.74878002126125
C            3.13500794903963       -1.10516319794457       -1.12242281133058
O            3.68317955739281       -1.13194465195640       -2.41081699223796
H            4.98816252474462        1.61899681402903        1.28812453978728
H            5.04436363622920        2.32729078762314       -0.35188555243559
H            6.43362415638949        1.38160037404012        0.26312357625934
H            3.08049832657800        1.06813113432132       -0.94500858665237
H            1.14768556553484        1.16350453087487        0.50470089908833
H            1.78486344877354        0.83393300168150        2.93990438682637
H            1.42127233814950       -0.89402114199776        2.76741065712051
H           -0.77820433586030       -0.21053139443183        2.34389598066521
H            0.81124966348582       -1.84529313194224        0.66572653830577
H           -1.21988312484665       -2.29205650786880        0.42350618508437
H           -1.92081825538383        1.23905790011499        0.60155335346890
H           -3.46894733828789        0.30528742849274        2.94982470101625
H           -4.24908110477730        1.63866575240559        2.05770436382474
H           -1.61802679604959        1.73998439352781        3.07397548826440
H           -4.60539462605855       -0.16941909951086        0.17595382916965
H           -3.71618014014140        2.40111051993524       -0.56698406828684
H           -2.34561523939004        0.54700250796463       -1.77351714241599
H           -4.68137540875142        0.46774493378809       -2.47517343806503
H           -3.36239295533370       -2.11772960463128       -0.68760969097425
H           -2.46927065166553       -2.01515625103876       -2.91098443334791
H            1.27074411392884       -0.51244776823034       -1.99897686475072
H            1.71064638217508       -3.18967261854802       -1.28448563690810
H            3.53017799584077       -1.93089864014230       -0.50891204682555
H            4.64353673428594       -1.01127383556648       -2.34894064059987
