48
 energy: -84.850971306936 gnorm: 0.000398940323 xtb: 6.7.1 (edcfbbe)
C            5.48033464610700        1.20841310140513        0.38938595575070
O            4.89646950710654        0.08360129479914       -0.26468159515518
C            3.52452789891157        0.16510061408129       -0.42634301357588
O            2.89957075725263        0.12085055180881        0.83617676578777
C            1.49985272922662        0.28476291565484        0.76577665710927
C            0.98972761979487        0.31987481693497        2.20692634667776
O            1.22187158292025        1.60983597919046        2.72074984391124
C            0.84031152203678       -0.83414453084618       -0.06515455103972
O           -0.50829494251958       -0.47478232313639       -0.33045206488580
C           -1.52408187851898       -1.32003277553396        0.12780309010891
O           -2.09676753773334       -0.84339947453929        1.32131100772963
C           -2.70359934515490        0.43916772573096        1.20025375176979
C           -3.24989259408691        0.82504620675504        2.58288477548781
O           -3.43296967504056        2.20678998321389        2.71908767282577
C           -3.81721161775869        0.42160935500090        0.14441456331195
O           -4.36035638188821        1.71771910445883        0.06047685755360
C           -3.22880112015253       -0.05940705986747       -1.19328701242026
O           -4.22216441028107       -0.19239443611160       -2.18813101402538
C           -2.60890558790801       -1.44210476421294       -0.95855748342064
O           -2.04224783368829       -1.97634256522817       -2.11735510913792
C            1.55310807109880       -1.05639660231789       -1.40842747274719
O            1.12263975220256       -2.29458270256368       -1.90907331252921
C            3.08192607086612       -1.04109685923880       -1.26364338043351
O            3.62493025145494       -1.00673210161073       -2.55702687309353
H            5.04660186857879        1.33940280476169        1.38137293108817
H            5.32207610630038        2.11306467811838       -0.20441161762639
H            6.53967437440158        0.98163608627409        0.46227114819223
H            3.24011082275486        1.10760955427937       -0.94170527221233
H            1.26436020931506        1.24907339932591        0.28751966092544
H            1.54389872025983       -0.43765283777737        2.77252047754031
H           -0.07956129100238        0.07970613757016        2.21937791733923
H            1.04469261770639        1.61652141415350        3.67204197778602
H            0.88034401534107       -1.77644711958234        0.49456134814629
H           -1.13117829029741       -2.31560054411696        0.36346571188826
H           -1.94811375578650        1.17954083561790        0.89874953636779
H           -2.52509925924277        0.52376803625106        3.34118349277726
H           -4.18724838662939        0.28279275806838        2.76557246399407
H           -3.95477132634320        2.52074047501252        1.96160066419252
H           -4.58646500686333       -0.30020052534584        0.45726878945998
H           -5.17732052773842        1.68734419499711       -0.45940880774944
H           -2.43357007743957        0.62409026713966       -1.51218495051329
H           -4.34040915320483        0.64837130334414       -2.65084317257700
H           -3.39136428108906       -2.11377235360700       -0.56799089088399
H           -2.69945306278015       -1.90652746493424       -2.82969323805829
H            1.26173259053167       -0.24206957252990       -2.08819301440296
H            1.52937982553604       -2.43431905959820       -2.77799704976515
H            3.39785073407611       -1.94745479116862       -0.72612674389980
H            4.59206204855437       -0.98170217291269       -2.49523768327483
