48
 energy: -84.850447231961 gnorm: 0.000917683891 xtb: 6.7.1 (edcfbbe)
C            5.58557819125758        0.81050431166405        0.71069130780099
O            4.87358806018895       -0.22387719324161        0.03651974185689
C            3.57155587326166        0.10210640282884       -0.29010568662374
O            2.82111529757495        0.16700860108369        0.90383951264958
C            1.45017728912243        0.45800701725344        0.71999585814767
C            0.85938974493416        0.68975447029146        2.11168800413833
O            1.18141589423739        2.00410504687072        2.50018079361493
C            0.79634297978886       -0.70720930022722       -0.04379559032283
O           -0.57021560543865       -0.46289639524587       -0.33192002034550
C           -1.53499409989873       -1.34703050998664        0.18418377466831
O           -2.15218222048331       -0.83499163733189        1.32919718887515
C           -2.85926802517239        0.38492731236038        1.10692874645090
C           -3.48277606785997        0.80236371510897        2.43659594188697
O           -2.48893245083367        1.37606584876079        3.25336638426331
C           -3.93775986919833        0.20830589033087        0.01778848879717
O           -4.66463674529960        1.38818050240496       -0.19017395885288
C           -3.27281206643137       -0.31339865139288       -1.27159552969361
O           -4.17668139853962       -0.42846929255677       -2.33563183647215
C           -2.56258131268977       -1.63699472788445       -0.93023489288991
O           -1.96686908283767       -2.26227233474717       -2.02825538552692
C            1.51498836023045       -0.85324951691904       -1.39900455211857
O            0.99308356571589       -1.90653197868776       -2.16756198957205
C            3.03592844340917       -0.98715903708555       -1.23066917912972
O            3.68737418118109       -0.84190999267822       -2.46333876077895
H            5.07214285527191        1.08840799823723        1.63268815721224
H            5.68286539661160        1.68575131705617        0.06237216853134
H            6.56311026805557        0.39125442580801        0.92904269753416
H            3.52279732439671        1.08024620380350       -0.81215981487258
H            1.33628588790919        1.38317253303091        0.13541792384028
H            1.31007534178700       -0.04270339267120        2.79201624922514
H           -0.22584839336083        0.54730482946195        2.08763374886756
H            0.84450814534197        2.16217980283111        3.39309563877565
H            0.90838149690644       -1.62274527143634        0.55008166443094
H           -1.07013823515417       -2.28625315652274        0.51173504939544
H           -2.14743753287561        1.16040232304242        0.78944953659613
H           -3.90895875795725       -0.09240997182532        2.90602441091758
H           -4.27846301803590        1.52582747811037        2.22130141591866
H           -2.88254303775698        1.60200703215142        4.10789966396608
H           -4.67287338919861       -0.52555309231224        0.37096771848827
H           -4.13509125601844        2.01795401773167       -0.70039424725214
H           -2.52106355815793        0.40820052609317       -1.61290288312473
H           -4.83518673037498       -1.11080559750603       -2.14277654380082
H           -3.29661982408738       -2.35357220895066       -0.54330136714445
H           -1.17700989694859       -1.76713728168288       -2.30746192743483
H            1.30907560516293        0.05121400450016       -1.98348317031711
H            1.16105555991116       -2.75580169314495       -1.73178867089966
H            3.28294043701471       -1.95840478726847       -0.77319519541166
H            3.25742438202026       -1.42044757272099       -3.11466163554955
