48
 energy: -84.853032549482 gnorm: 0.000937501143 xtb: 6.7.1 (edcfbbe)
C            5.60267971957515        0.94503073560865        0.53750024022022
O            4.91792489774566       -0.11300700582147       -0.12733304339863
C            3.57707070858541        0.12574640606220       -0.35137308189897
O            2.90896951319583        0.11026880912677        0.89244741897633
C            1.51342180676394        0.31035675852398        0.82310897477255
C            0.99758626310224        0.28106769997524        2.26672898726007
O            1.09320652810780       -1.03349775021274        2.75980423494008
C            0.84024474159883       -0.78374393970709       -0.02237369851552
O           -0.51879556070651       -0.45649613747040       -0.27561412115230
C           -1.51985053943204       -1.32815080421490        0.18268407763696
O           -2.10284926829469       -0.86643451027679        1.36750811882288
C           -2.76451047434053        0.39221574133414        1.24157878170214
C           -3.41505430065118        0.68250221440677        2.60114978709856
O           -4.26891160725989       -0.35373201470714        3.00867517203000
C           -3.81567359679191        0.38168231796765        0.12429283778972
O           -4.29747801525078        1.69511786487273       -0.01653662815031
C           -3.19426846643736       -0.11854345258146       -1.19318850290907
O           -4.14554920971373       -0.11583199926086       -2.22830151561242
C           -2.56471450282940       -1.49378868557551       -0.93795617169218
O           -2.01068714392463       -2.08734349599106       -2.07606757910708
C            1.52277846324878       -0.86375356811474       -1.39900812074329
O            0.99119241777241       -1.89763268810448       -2.18870323927040
C            3.04863897559622       -0.97168066940321       -1.28399652548735
O            3.65684511079345       -0.79733125682302       -2.53501633595771
H            5.17990669882460        1.10874888961126        1.53005041466393
H            5.53957021084650        1.86492573137255       -0.05069596802682
H            6.63460610482658        0.61587787893954        0.61322027608116
H            3.42327793352451        1.11240580648669       -0.83858666142835
H            1.29263720667868        1.28943980014977        0.37068149058718
H            1.61370630056581        0.97009935873760        2.85253554976489
H           -0.04612611677234        0.61856552580651        2.27325869030857
H            0.99737619347227       -1.02242965075368        3.72218501133443
H            0.92421702361949       -1.73696739097580        0.51069458542093
H           -1.09615967779362       -2.30680234212310        0.44507626919393
H           -2.03520216143185        1.17918934995420        1.00604957971359
H           -2.62810791903939        0.85109795060718        3.34665129626201
H           -4.02752494998648        1.58107775607284        2.50700757870714
H           -3.74688655899668       -1.16868669836577        3.06250371240311
H           -4.63738767957492       -0.29217325037457        0.41917823262217
H           -4.77446677532908        1.75076170282131       -0.86033936817749
H           -2.41361205021172        0.58486005295142       -1.50504036298887
H           -4.68784362892665       -0.91664192308484       -2.18334713329844
H           -3.33949252051916       -2.18618196211201       -0.58648489921253
H           -1.17145102370899       -1.65202613306773       -2.30591480386719
H            1.28293332589365        0.05860322438478       -1.94192854879059
H            1.18239976652352       -2.75788995330680       -1.78493240279031
H            3.33288297707310       -1.93940633245443       -0.84214607967863
H            3.22133085935643       -1.38014998578970       -3.17883948748453
