48
 energy: -84.850354051148 gnorm: 0.000698231768 xtb: 6.7.1 (edcfbbe)
C            5.57443822884048        1.12838988627157        0.55305890056188
O            4.95290666212833       -0.01022808126574       -0.03741613990438
C            3.60509956781143        0.13914684101095       -0.29566459720757
O            2.90950734392180        0.17979495801052        0.93255518876475
C            1.51284913169596        0.36446026572933        0.80589787796181
C            0.95463360275209        0.34809510307248        2.23787245230979
O            1.23677695590636       -0.86407488771939        2.88577103377504
C            0.87574560767542       -0.74637803150998       -0.04356230316904
O           -0.46062388657706       -0.37790279891636       -0.37082439790431
C           -1.49754634865227       -1.22574895232491        0.06065803480274
O           -2.12363521924854       -0.75997256972833        1.21605015439603
C           -2.80361083407126        0.48085167209669        1.05984097613344
C           -3.29244038905856        0.91891975318975        2.43713508739257
O           -2.20480994654290        1.47628456460836        3.13786704782589
C           -3.95168923516789        0.30691858404142        0.06056974778467
O           -4.64842933191983        1.51768726716902       -0.05799117946080
C           -3.35707280723881       -0.12530198412702       -1.28595135608396
O           -4.42751419233361       -0.35023440104337       -2.17232471148798
C           -2.48850960261543       -1.37823398949012       -1.12106748487448
O           -1.79038900591608       -1.66195902407349       -2.30892237942459
C            1.62639305828719       -0.98084224347138       -1.36708120565935
O            1.22385890550348       -2.18181372807851       -1.97534467072671
C            3.14513013822039       -1.05901447713019       -1.14907934976990
O            3.85121580150800       -1.14073053052915       -2.35084928222578
H            5.12259154523316        1.35618862374662        1.51960848641404
H            5.48772728872003        1.99464494737475       -0.10925810182197
H            6.61722422176570        0.85288597250475        0.67788539811442
H            3.40962193487064        1.08752870770996       -0.84466820241843
H            1.29954481951606        1.33463359650568        0.33169232353246
H            1.38296880952643        1.19318275704768        2.78865972193142
H           -0.13132858572930        0.44910885422919        2.22103746008291
H            2.19939251479107       -0.96777335774572        2.92539808789358
H            0.88717418043921       -1.67546378673507        0.53906116415400
H           -1.09865549212394       -2.20983790352988        0.33684951704872
H           -2.10683027027500        1.24208525775564        0.68319851865552
H           -3.68695150368460        0.03732719270699        2.95404529311208
H           -4.08604267315007        1.66160351611250        2.29382090134449
H           -2.47965297011367        1.67525350963534        4.04415733297602
H           -4.61977605214683       -0.49037864140404        0.42178001622727
H           -5.29319852405487        1.42585322996397       -0.77738801235643
H           -2.72412669190255        0.69931449218488       -1.65597981631149
H           -4.09890841593325       -0.78260289429163       -2.97473919321628
H           -3.13363015801186       -2.24008433798597       -0.92718934572694
H           -1.30838713635411       -0.86152636730431       -2.57225490948267
H            1.41177461403622       -0.12440693256684       -2.02924992399134
H            0.25911169708926       -2.18972785834895       -2.10799387680035
H            3.38705012478010       -1.97811120857725       -0.60772407473510
H            3.63754551735336       -0.38763258265776       -2.92253318610589
