48
 energy: -84.842390995121 gnorm: 0.000289633151 xtb: 6.7.1 (edcfbbe)
C            5.55101455820026        1.21785215067028        0.45080543823457
O            4.98519596043838        0.11351652444101       -0.25080063029137
C            3.61479641108329        0.17479654884570       -0.41059967708762
O            2.99641421396464        0.11198017234047        0.85508213591131
C            1.59216112709743        0.23488254278003        0.81727880481066
C            1.10440779479533        0.22077015105073        2.27725414015654
O            1.70081259430979       -0.77615480307692        3.06214872921195
C            0.93621829755197       -0.87389238791731       -0.03344050405646
O           -0.41547621068302       -0.51280791361156       -0.28972690580843
C           -1.43226188210370       -1.36460776377826        0.15287715705849
O           -2.01101255350201       -0.91550530333457        1.35041172704908
C           -2.61573624271762        0.37719239712954        1.26621847705089
C           -3.18409299055706        0.67666645837997        2.66262226008589
O           -2.20748678588708        0.62131209322480        3.66797778640469
C           -3.71655551068108        0.42632613266756        0.18553771028623
O           -4.18543070354798        1.73533345870991       -0.01420630317741
C           -3.13779520209131       -0.07572358928704       -1.14434532123075
O           -4.07829018857369       -0.10925033564810       -2.18557599894816
C           -2.52241201496775       -1.46622240137364       -0.92883478532299
O           -1.98428287902087       -1.98932814683930       -2.10742448411079
C            1.64144008186543       -1.05643343908501       -1.38607918342789
O            1.22309891482568       -2.28975673684333       -1.91137355120386
C            3.17708607663562       -1.02220018938489       -1.26544120796805
O            3.77070040227280       -1.04135228654590       -2.53434569145857
H            5.16315627155095        1.26183196466772        1.46940976952878
H            5.32956974724109        2.15301807908447       -0.07174940719632
H            6.62092736734617        1.03338753543061        0.45893944915661
H            3.31483460309137        1.12768867352928       -0.90483846752517
H            1.31022507896877        1.19712269090843        0.35840762411064
H            1.37909814455151        1.16178991034703        2.75598891129258
H            0.01312633489273        0.12495414048475        2.27769000217519
H            1.57536694548989       -1.64345157665533        2.65533878883700
H            0.97826759308250       -1.83632445541284        0.49013095857233
H           -1.04017437442225       -2.36599452325255        0.36828695159139
H           -1.84689611054030        1.11826731935048        1.00824448229152
H           -3.99419615397131       -0.03271942421197        2.87344319248242
H           -3.56883597880369        1.69698512767201        2.68204214955104
H           -1.88375577894159       -0.28743292591143        3.73604714558565
H           -4.53550785209161       -0.24641094612463        0.48345655476654
H           -4.82032504132712        1.97980017098102        0.67283397229730
H           -2.35487304325028        0.61320543173149       -1.47659279832785
H           -4.89716799533995       -0.52980445671672       -1.88298522737778
H           -3.29885458917993       -2.14776231710269       -0.53672399330761
H           -2.51256334123417       -1.65551854303414       -2.85277187662520
H            1.31265432763202       -0.23192959630384       -2.03964917333508
H            1.70762399230165       -2.45946554585559       -2.73446558679981
H            3.52220931310009       -1.93193275497907       -0.76304237345736
H            3.67453027196083       -0.18022137860076       -2.96774505979515
