48
 energy: -84.855842686738 gnorm: 0.000544466312 xtb: 6.7.1 (edcfbbe)
C            5.61414466361004        0.91451690034312        0.49866750319406
O            4.93472692871985       -0.14106799024922       -0.17808954051367
C            3.59082763849261        0.09623249825214       -0.40531520883026
O            2.91721818144707        0.17472725168115        0.82966693417959
C            1.52995692146486        0.42663181839060        0.72339388962553
C            1.00168099904367        0.53769243812594        2.16344164209212
O            1.52813792682207        1.64416460855982        2.84529818215368
C            0.84522603076666       -0.70837596250379       -0.06059433696272
O           -0.51216632661359       -0.41004612595134       -0.33761652476418
C           -1.49818979712749       -1.27539566990607        0.17042795303717
O           -2.08343305449889       -0.75656799162996        1.32851018376619
C           -2.74007463064696        0.49290555097243        1.11404024006674
C           -3.24751785434869        0.98725492532637        2.46540805698164
O           -2.18326291264333        1.62740778510558        3.13295455711711
C           -3.87689584547625        0.35155564287029        0.08030639308977
O           -4.56403778620710        1.55978525308627       -0.09259937020722
C           -3.28023311914660       -0.19468250009285       -1.22411531556003
O           -4.30441516179479       -0.39023043612526       -2.16595712551300
C           -2.54972127420038       -1.51493227565681       -0.92299266722209
O           -1.99510161580969       -2.06278380197388       -2.08897463592020
C            1.54050159056057       -0.89256540800941       -1.41929285179841
O            0.95032465311971       -1.99471394560186       -2.06037700292661
C            3.04790488221342       -1.07571042457403       -1.23740923854239
O            3.62666418953754       -1.12621050451767       -2.51359784184435
H            5.16314466534457        1.09269845226316        1.47555440991301
H            5.57738841606399        1.82947488497323       -0.09924147516983
H            6.63915861169939        0.57368908574188        0.60818996596894
H            3.44581845314679        1.04668234286099       -0.96435427072499
H            1.36489658689931        1.37158462903310        0.18117739094344
H            1.34337754607906       -0.34026248714047        2.71573446775706
H           -0.09207733308556        0.55842275311571        2.15770680044721
H            1.12623616047084        2.45808089487694        2.51033646230683
H            0.92534093061630       -1.64051831842680        0.50980969009529
H           -1.05477975395254       -2.23286182361817        0.47340058206010
H           -2.00623856370863        1.21802548436952        0.73363484534030
H           -3.60741468056024        0.12081688245586        3.03035042727923
H           -4.07401554009417        1.68592969603474        2.28662891859173
H           -2.46845861426591        1.87402531063601        4.02371887761787
H           -4.62243931880942       -0.35902633488329        0.45358242409634
H           -4.04577172973759        2.16176364226213       -0.64695202845264
H           -2.54189653625182        0.52648726840707       -1.61459029164384
H           -3.96722806619588       -0.97945448863191       -2.85943934124342
H           -3.28505501789397       -2.23630808919545       -0.54422435945591
H           -1.04662579973189       -1.84415457099026       -2.14628679635716
H            1.37459945280696        0.01658224072206       -2.01893469374629
H            1.48229684361903       -2.21297834077218       -2.84237843640498
H            3.24249643275830       -2.00118987394577       -0.67644213913074
H            4.58696663080455       -1.21700288607272       -2.42581030807723
