48
 energy: -84.854044382773 gnorm: 0.000693687284 xtb: 6.7.1 (edcfbbe)
C            5.67254894014538        0.89404175290343        0.42222251261987
O            4.97851866545440       -0.14580279774766       -0.26412054543990
C            3.62826438540322        0.08881905004451       -0.44582769726919
O            2.98417857188534        0.10569117230626        0.80856977808033
C            1.59387565842237        0.34647403431035        0.74209477775878
C            1.08454719239614        0.39185312635349        2.18999859421489
O            1.55498316226926        1.49800286741646        2.90885563276863
C            0.89430616386690       -0.75629074130704       -0.07633220198551
O           -0.47179537411966       -0.44625354353584       -0.29643850361126
C           -1.44848979049803       -1.33406789400084        0.19501246406214
O           -1.99536274898205       -0.86727353060919        1.39289178919194
C           -2.67714401806104        0.38372635100343        1.27691178112120
C           -3.28962448521891        0.67003444102653        2.65690451246378
O           -4.13615425018186       -0.36433047703278        3.08068914483780
C           -3.76122808300750        0.35177068027676        0.18873629509003
O           -4.35194007752842        1.61465724748679        0.01394941077833
C           -3.19332902798374       -0.16909323894852       -1.14290763039207
O           -4.21605260065326       -0.31696959878468       -2.09584482274977
C           -2.52044347921396       -1.52786017064787       -0.89344131674860
O           -1.97519573566802       -2.11093990771703       -2.03979048907512
C            1.55910343323212       -0.87263541732641       -1.45751253730253
O            0.96823971185325       -1.95142148949068       -2.13354274690849
C            3.07269555745763       -1.04867899037504       -1.31642967124783
O            3.62211154795487       -1.03573974593782       -2.60636648146648
H            5.25720636424492        1.03479479943783        1.42078584254444
H            5.60580926782506        1.82770458692840       -0.14324841124850
H            6.70407646946073        0.56068439361521        0.48276803675377
H            3.46031157814260        1.06219746943855       -0.95650298672053
H            1.40913782356873        1.31131923679100        0.24143578069190
H            1.46904145069157       -0.48505945847746        2.71453983064315
H           -0.01024557999260        0.35535276344750        2.18345106793403
H            1.24145064593263        2.32002513136123        2.50476818707579
H            0.99154806139353       -1.71504240488006        0.44510303846073
H           -1.00100832386387       -2.30565848364080        0.44011250744267
H           -1.94916756223271        1.16734428872568        1.02145674982088
H           -2.48216757591822        0.82954204878386        3.38185466862294
H           -3.90888981579582        1.56630272785043        2.59253181437979
H           -3.62007570131312       -1.18277117041918        3.11831078182341
H           -4.57316839272571       -0.30962612555376        0.51199568548788
H           -3.67496236561072        2.26114335969769       -0.23828346932331
H           -2.42962437034427        0.53295644600772       -1.51924875572318
H           -4.81995290330072        0.43887561107666       -2.01280147344591
H           -3.28274610011606       -2.22601769775129       -0.52976983500397
H           -1.07556086600100       -1.76854527497902       -2.19186740888298
H            1.37231955658828        0.06103426827102       -2.01229002432745
H            1.48135152794325       -2.12753914364986       -2.93829125406297
H            3.28692614156235       -1.99690933149162       -0.80263899501344
H            4.58442935519511       -1.12985222019137       -2.54587242500098
