48
 energy: -84.860885280915 gnorm: 0.000540895957 xtb: 6.7.1 (edcfbbe)
C            5.52720743184715        0.99387437016680        0.42533721127715
O            4.85120209531586       -0.10605633463562       -0.17948948977144
C            3.49657886468075        0.08681135523060       -0.38165737861355
O            2.84254060572204        0.12845141741159        0.86759684811412
C            1.44072367370535        0.32037470033918        0.79375626867732
C            0.93957949439091        0.28558115795542        2.24703819749138
O            1.25107427185841       -0.93322507327667        2.86808583859003
C            0.76805500232537       -0.77998357320534       -0.04500101991623
O           -0.57817458995693       -0.43402659331411       -0.32770116166597
C           -1.59498381582443       -1.28839099235586        0.13003025664449
O           -2.18649011699545       -0.80230015896309        1.30081673700443
C           -2.79286758443169        0.47803745604895        1.13859353677585
C           -3.30956663340993        0.92245409224304        2.50367323987530
O           -2.21808830726870        1.39602380947259        3.25886030089471
C           -3.90473950991888        0.41695350379079        0.08343225042032
O           -4.46340337996957        1.69587400235068       -0.05749575883088
C           -3.30453940151841       -0.08654333394636       -1.23544773139551
O           -4.33924587123139       -0.18336020735183       -2.18504152182390
C           -2.63288107627344       -1.44606884783323       -0.99208876990019
O           -2.07390741378091       -1.95881816922003       -2.17245509230868
C            1.47085510796801       -0.93086869059712       -1.40197219624387
O            0.89654734958172       -2.02741645094842       -2.06701133579571
C            2.97963332650013       -1.09268571035845       -1.21894447909246
O            3.56247094451138       -1.12439006113137       -2.49372240837303
H            5.11912531395750        1.19843972557938        1.41546763006931
H            5.43625486776665        1.88456516226966       -0.20234717521489
H            6.56628618653329        0.68727489172178        0.49955766569669
H            3.30656674169237        1.03733915082687       -0.92428248814148
H            1.21234583696923        1.29485836175230        0.33832679037818
H            1.38555746016549        1.12533616363276        2.79185634918799
H           -0.14638002649909        0.38227114818128        2.27288413472568
H            2.21521340399525       -1.02887275731296        2.87806902706513
H            0.81704505804843       -1.72937071536526        0.50035145369185
H           -1.18571064125144       -2.27000343539579        0.40284759264913
H           -2.03735967725334        1.20245110431057        0.80421374858370
H           -3.78065606541163        0.05938983272269        2.98729038024304
H           -4.04750849367122        1.71718086919780        2.34241580714173
H           -2.51573031521103        1.59274412558039        4.15851570840464
H           -4.67396262678217       -0.30141353074404        0.41047351580315
H           -5.03924067769832        1.68545222530022       -0.83842998470896
H           -2.54152608049781        0.62991518728558       -1.57820142915994
H           -4.02275809540312       -0.72820901801102       -2.92168125106377
H           -3.39994500423965       -2.15766002641597       -0.65962823284798
H           -1.11468092212508       -1.78704889992867       -2.19151381627458
H            1.29323782651597       -0.01139664029838       -1.98289021530234
H            1.43744668899955       -2.22696698405152       -2.84779952945526
H            3.18921974772320       -2.01882595033055       -0.66470240154377
H            4.52503002417242       -1.19120069590048       -2.40510655837812
