48
 energy: -84.852584732366 gnorm: 0.000770309755 xtb: 6.7.1 (edcfbbe)
C            5.61804369997920        1.06037740231305        0.39492031687591
O            4.97335807118711       -0.00817676039056       -0.29402046451734
C            3.60911413200379        0.14342558424129       -0.44228354611849
O            3.00046769722881        0.13561557991878        0.83104040864276
C            1.59591374946256        0.28772253465989        0.82540283416740
C            1.14315780275354        0.19924078986846        2.28742902974400
O            1.34971012160491       -1.11568532015067        2.74711411566264
C            0.90798182144837       -0.79458200103518       -0.02405815889793
O           -0.45567231527223       -0.46200299378865       -0.23485554393627
C           -1.43681519086951       -1.34973828569822        0.23611025891470
O           -1.97988761300097       -0.90859471830208        1.44858098007963
C           -2.62204031138340        0.36237722947918        1.35439380589090
C           -3.12130062977964        0.73924858144537        2.75721720010299
O           -2.15011894147817        1.41007119774706        3.52047980938827
C           -3.76001231793264        0.31708990889915        0.32615785512579
O           -4.34063519480689        1.59296117267764        0.24134756708207
C           -3.19045564559420       -0.12716246335728       -1.03520036630910
O           -4.19984729612072       -0.12221548748168       -2.01588025807343
C           -2.52174598089956       -1.49507807171795       -0.84689646077325
O           -2.01321687716984       -2.03207574747713       -2.03463906676993
C            1.55730472264062       -0.87191656887782       -1.41195299284897
O            0.97870957903130       -1.94391211195078       -2.11296133560107
C            3.07945715353512       -1.01874284144651       -1.29495941656714
O            3.67072216811406       -1.10411432393925       -2.56119448631989
H            5.24846575566410        1.13222970338305        1.41844651440744
H            5.44807010684333        2.00602180562873       -0.12815049301880
H            6.67416922021570        0.80877585692032        0.38851433292008
H            3.37236517061413        1.11312169276992       -0.94051854468200
H            1.32712776184119        1.27392678261383        0.41445409944837
H            1.74116181744313        0.91169188353488        2.86666883198261
H            0.08242275184531        0.46550672672447        2.35377883266829
H            1.11672468032774       -1.15696399514341        3.68489782023254
H            1.00491351854155       -1.76016398405343        0.48154464023199
H           -0.99919348780038       -2.33184004567232        0.45691231699634
H           -1.89277321741842        1.11111955638315        1.01234496491418
H           -3.35070108764050       -0.18388278946754        3.29278309137402
H           -4.02769429251773        1.34217840990686        2.65323201985793
H           -2.09805604500824        2.33222093870106        3.23210538371635
H           -4.51235605811920       -0.41806474197816        0.65743662265233
H           -4.83556693738539        1.64177659478246       -0.59234593507988
H           -2.43852402449422        0.60253884055987       -1.35960397365849
H           -4.54882382761749       -1.01613457524482       -2.13956476260111
H           -3.27322080163566       -2.20693923866001       -0.47935116605447
H           -1.09003587396568       -1.75248126377867       -2.16256821083211
H            1.32891050046358        0.07126771042182       -1.93896711218583
H            1.58662201114280       -2.21458898997850       -2.82098604040308
H            3.32589600266693       -1.95332016173226       -0.78106032797384
H            3.70975395004583       -0.23206401842204       -2.98144394659269
