48
 energy: -84.859923704689 gnorm: 0.000736269277 xtb: 6.7.1 (edcfbbe)
C            5.59998932811292        0.96954002273791        0.39104623166388
O            4.91505416016242       -0.08816181747953       -0.27537345719104
C            3.55565917713146        0.11286381470538       -0.43208476231343
O            2.93611392670394        0.12742539091280        0.83409279975443
C            1.53645321399727        0.31552705733653        0.80176452380858
C            1.05593194886292        0.24106994374522        2.25490886044190
O            1.22622000779531       -1.07667491298641        2.71942494413576
C            0.83472200054385       -0.75043709404290       -0.05765609118903
O           -0.51592707523092       -0.38606510244149       -0.29524276039667
C           -1.53070720177960       -1.24621915302844        0.15542803252127
O           -2.09424779025050       -0.79408450052077        1.35746749272119
C           -2.70450201146012        0.48879462006544        1.25032793863101
C           -3.26097833675988        0.86047229844929        2.63166466087690
O           -3.49141126614514        2.23658026142615        2.75984886689645
C           -3.80587875660117        0.49013130282492        0.18057051833879
O           -4.33819167290968        1.78739223608566        0.09598002083387
C           -3.22176445202535        0.02536141421056       -1.15770262501728
O           -4.26347959667299       -0.01178388987319       -2.10336357004502
C           -2.58551702620645       -1.35737743094350       -0.95570107062671
O           -2.05278644128501       -1.85686789641015       -2.15293902363041
C            1.50366168202085       -0.85937319899345       -1.43454007599889
O            0.90233554732407       -1.92607945347156       -2.12400633825305
C            3.01276998516963       -1.04293209533400       -1.28497647101921
O            3.57345187100515       -1.05512454653281       -2.57027688941180
H            5.22203986830848        1.08763862567531        1.40696377571164
H            5.47733569494758        1.90524726420920       -0.16148998894896
H            6.64405077606931        0.67172150728495        0.40611175441583
H            3.35556620684378        1.07923825946437       -0.94566806971905
H            1.30049384606930        1.30691576629252        0.38397562194253
H            1.65486397768755        0.94532461789288        2.84172049941187
H           -0.00086553959164        0.53053924257456        2.29217804900806
H            1.07331984395242       -1.09936928821268        3.67463841979967
H            0.89631208215177       -1.71658151548224        0.45362406003125
H           -1.12408160036903       -2.23856362536478        0.38997813337485
H           -1.94910922806656        1.23469123218396        0.96109436212750
H           -2.52467068334555        0.59303385997344        3.39183813352402
H           -4.17783479725778        0.28596347301747        2.81634855289104
H           -4.04223818871511        2.52357381672590        2.01220300560254
H           -4.59298664724883       -0.22430341652101        0.47284379581505
H           -4.91376790977920        1.82983139904850       -0.68331480944983
H           -2.44061962897137        0.73134008796293       -1.48008249051475
H           -3.96803092879661       -0.54118692918317       -2.85919059346715
H           -3.36566457911153       -2.05807945047146       -0.63123076382365
H           -1.09117757022655       -1.70017118238661       -2.18757144469555
H            1.32452959595712        0.08100034155024       -1.98073211747481
H            1.43061711278707       -2.11188858216830       -2.91703081901692
H            3.22183251444610       -1.98035750847910       -0.74978499947543
H            4.53723255896525       -1.12050828911360       -2.49704778134245
