48
 energy: -84.845363045648 gnorm: 0.000479569696 xtb: 6.7.1 (edcfbbe)
C            5.67263933634426        0.87510898807418        0.53779672751082
O            4.96578692331399       -0.15142759602948       -0.15341050167367
C            3.62700622915181        0.11292630239059       -0.35668516802047
O            2.96900595529192        0.04243569732262        0.89237486394013
C            1.57542917137839        0.27993059365112        0.87296064575213
C            1.18722484961989        0.22141405131313        2.36650343658502
O           -0.11590064781411        0.63485319838157        2.65375444656738
C            0.86453234356069       -0.77110865536156       -0.00455175120280
O           -0.48953757468368       -0.42948984849161       -0.28365423117012
C           -1.51618724687193       -1.29472507377422        0.13650647738580
O           -2.12095062879140       -0.82768907225769        1.31067062106821
C           -2.81607111173586        0.41649729214331        1.15202439027522
C           -3.45633010142929        0.77389329473715        2.50622086364388
O           -4.37879919001898       -0.17709264757474        2.96889303368587
C           -3.85232635703898        0.34431220897883        0.02083938177628
O           -4.51071686810136        1.57195747161808       -0.16197338682782
C           -3.19371279682247       -0.12691507266998       -1.28776276099785
O           -4.15136528785179       -0.27287171179970       -2.30537220184995
C           -2.52290654550964       -1.47932770050079       -1.01544054440088
O           -1.91225233690598       -2.06001630545611       -2.12720627290536
C            1.54512365348129       -0.80992780936369       -1.39216615138137
O            0.98992550963075       -1.79866064808553       -2.22024451761683
C            3.07131014819190       -0.94157590450049       -1.31914893310316
O            3.64775187468986       -0.72428709350507       -2.57772564297509
H            5.25462481587221        1.02138768536020        1.53511852056799
H            5.62778676563611        1.81084551057390       -0.02626061057372
H            6.69776596207636        0.52339385256780        0.60328765245950
H            3.47998525489181        1.12000317934165       -0.79897663342846
H            1.35521432841857        1.27797920978929        0.46545011333746
H            1.85449327836324        0.90475612989451        2.89721132445769
H            1.38076930478007       -0.79561116239563        2.72764399235513
H           -0.74461357632036       -0.04461512933993        2.35030341443553
H            0.92560317717484       -1.75417220911389        0.47816819405460
H           -1.10703201979605       -2.27841327025624        0.40658669852324
H           -2.08300741630792        1.19926174660627        0.90651741413766
H           -2.66762981616561        0.82337879014799        3.25895832211594
H           -3.92190460555484        1.76035598551007        2.40868094453131
H           -5.20415056186198       -0.10186567617231        2.47026198630250
H           -4.63516758481557       -0.37760253772362        0.27846256125921
H           -3.86378075488720        2.26628804719873       -0.35676748850609
H           -2.41984529768487        0.59573743512683       -1.59747782075626
H           -4.77329909834600        0.47067376585943       -2.24951894520970
H           -3.29331555355925       -2.19039102436362       -0.69797174885165
H           -1.09872722061066       -1.57566140700622       -2.35688448206880
H            1.31096874268888        0.13821133754082       -1.89168701404625
H            1.17232036803707       -2.68119139658717       -1.86367605025742
H            3.35690111991524       -1.92851562362848       -0.92301508318885
H            3.19286408411353       -1.27996420747462       -3.23221306236718
