48
 energy: -84.849506911818 gnorm: 0.000569746793 xtb: 6.7.1 (edcfbbe)
C            5.65873628207755        1.03738267695949        0.49944811617332
O            5.01230500903169       -0.04653659025898       -0.16451145411436
C            3.65998507815724        0.13699849610588       -0.37073323016966
O            3.00589209361532        0.13804332663772        0.88206391626198
C            1.61220241069069        0.35207527258662        0.80327451606922
C            1.08731816506612        0.42604844577824        2.24127565826515
O            1.04505334920611        1.77808118452684        2.63868893927656
C            0.94978798910122       -0.76723242496114       -0.01578829800129
O           -0.41596161145015       -0.46014791798409       -0.25068230242556
C           -1.39441655982327       -1.34583464247098        0.22821948937151
O           -1.96362105427370       -0.89789035951333        1.42161053363092
C           -2.64652531732607        0.35164259261862        1.32361308560119
C           -3.28321666201941        0.62113776388736        2.68959993936142
O           -4.30322441799592       -0.32195455071769        2.91816949220117
C           -3.71563517051386        0.34401681437962        0.21858236958117
O           -4.30102363514766        1.60962454532550        0.04922137295448
C           -3.12268986495957       -0.15765046777204       -1.10454167544358
O           -4.11547710059936       -0.31608385942328       -2.09022966008350
C           -2.45156842456091       -1.51139552272065       -0.87389881653428
O           -1.80358027890008       -1.98992816187421       -2.02275169279908
C            1.62114622629811       -0.91121616098321       -1.39516881935083
O            1.15892298537927       -2.05402976672502       -2.06424328492715
C            3.14769835429149       -1.01423838607475       -1.26110664905137
O            3.79469667308938       -1.03880904963615       -2.49826974944049
H            5.22314662303607        1.19378063321109        1.48742213770641
H            5.56949356261434        1.95228581788279       -0.09352332188221
H            6.69993175602878        0.74178402823104        0.58391671210844
H            3.46515077842799        1.11176491851898       -0.87241661202996
H            1.40737639167373        1.31496823625515        0.30852448644580
H            1.77203706378512       -0.15645312388007        2.86437884077788
H            0.08401648219766       -0.01565989225926        2.28929881495048
H            1.07391680986876        1.83551437089289        3.60376727699016
H            1.04805035470427       -1.71639016060130        0.52457382951459
H           -0.95491315203191       -2.32251855058643        0.46699070313138
H           -1.90937654734805        1.14018968391948        1.10596432716769
H           -2.50062990297964        0.54007667156041        3.45122591469229
H           -3.69131493847696        1.63895741668441        2.67977746287713
H           -4.67365827702615       -0.17832460395035        3.79999303058131
H           -4.52861968259548       -0.32374868996060        0.52378460852187
H           -3.61412200008202        2.26234947591285       -0.15452301057911
H           -2.35328809258752        0.55077833263334       -1.45438868611148
H           -4.73838774258035        0.42398603314797       -2.02315941787662
H           -3.20797785728931       -2.22953082259582       -0.52549895866525
H           -2.43856143334279       -1.96377898681847       -2.75654622330811
H            1.37488305370825       -0.00571215198808       -1.97596105257190
H            0.18568267632029       -2.02109076904210       -2.13276128747186
H            3.40845380315468       -1.95998384014866       -0.77702514381226
H            3.51634975846755       -0.28539030887177       -3.04108318987634
