48
 energy: -84.846205099115 gnorm: 0.000442967095 xtb: 6.7.1 (edcfbbe)
C            5.66975569582127        0.97294671899802        0.56670375137072
O            5.01427698947439       -0.08201634632242       -0.13350303266595
C            3.67504049186679        0.14934847763521       -0.37972360391519
O            2.98699503406258        0.12183597864510        0.85129560661618
C            1.59557303595320        0.34265642405029        0.75693513269450
C            1.07669928602946        0.38805553398674        2.20464633360991
O            1.54719142836305        1.50527241980225        2.91043137925981
C            0.92477209413898       -0.77563056302943       -0.06898360060442
O           -0.44024670953745       -0.46140215070450       -0.30757786756791
C           -1.41906377021245       -1.33909045922706        0.17467805628127
O           -1.98075794392406       -0.86578925641939        1.36984441477210
C           -2.63689784501313        0.39231075956458        1.22559284970829
C           -3.10861748163786        0.82573777606577        2.61143162574863
O           -2.00028662964752        1.32424766856455        3.32293841696442
C           -3.79446078038842        0.29050800313887        0.22252511428622
O           -4.39264233189154        1.55775062847131        0.10724057927648
C           -3.22594353640707       -0.20233096905272       -1.12267803036370
O           -4.23936149350872       -0.42070636248918       -2.08025555965782
C           -2.52062771301396       -1.53942973067007       -0.87982393764570
O           -1.95201780634390       -2.07461512870840       -2.03762118452537
C            1.62578330468446       -0.88055625790137       -1.43866501370725
O            1.16507896780117       -1.94816881504122       -2.22282842290476
C            3.15794065685152       -0.95531017348626       -1.30645232718987
O            3.76141351098768       -0.79829844757970       -2.56187750965334
H            5.19129916811090        1.14348503742346        1.53279929016147
H            5.64677696213353        1.89087647036707       -0.02757060779654
H            6.69291578921994        0.63561142022750        0.70142438054381
H            3.52428683556625        1.13473462044660       -0.86960148750567
H            1.40320287769344        1.30230975128359        0.25137735081525
H            1.47504478446397       -0.48241678080023        2.73016535839646
H           -0.01593609006015        0.34871161001448        2.21199380804615
H            1.09568408770321        2.30140196370053        2.59765964805750
H            1.01344611310366       -1.72426864411810        0.47411448672273
H           -0.98282031962830       -2.31310393841910        0.42861569654495
H           -1.92246483042552        1.13794744976730        0.85140940689875
H           -3.54107946629237       -0.04745375725573        3.11221368428315
H           -3.86882681453921        1.60545639961817        2.48341578375561
H           -2.26217836357706        1.50268649543229        4.23693078025679
H           -4.51684444699357       -0.45199742086335        0.59037025219510
H           -5.25282919529004        1.46732749816577       -0.32928256666444
H           -2.48488199707041        0.51913769924850       -1.48732448212801
H           -4.46263913489376        0.41264643440801       -2.51693393618105
H           -3.25513320198965       -2.24367703109643       -0.45369577746151
H           -2.60810372984793       -2.01701819828033       -2.75089995980337
H            1.36956571407455        0.01891272382067       -2.01066255298567
H            1.26057522811428       -2.78375580591225       -1.74344086779036
H            3.45005037926173       -1.91688070821036       -0.85486749734704
H            3.29392319368917       -1.36768603098223       -3.19648033856569
