48
 energy: -84.857080027240 gnorm: 0.000469220757 xtb: 6.7.1 (edcfbbe)
C            5.60253449811989        1.06018620043511        0.36991132115648
O            4.93145161920771       -0.03801720718833       -0.24354103211692
C            3.57288350343014        0.14124930572788       -0.42684604914740
O            2.94212704279126        0.21144997937165        0.83396792598180
C            1.53990113233577        0.39732318866882        0.81070563573120
C            1.17008802235523        0.40238444231798        2.30882665814096
O           -0.15471274467071        0.73739126785948        2.59636431829455
C            0.83951503697204       -0.71990638783644        0.00863920706118
O           -0.50463031487886       -0.38958176998984       -0.31970548967038
C           -1.53649535991023       -1.21504191280992        0.15362193776090
O           -2.15601977771483       -0.65561439173946        1.28255627373122
C           -2.84867838577454        0.57757020965313        1.02293844432168
C           -3.45485890183552        1.06561147602827        2.34846061129855
O           -2.70213191183333        2.06190460142350        2.98696049662156
C           -3.91659948564926        0.37694151507539       -0.05895531713060
O           -4.54502853243464        1.60770368791575       -0.29485853658559
C           -3.25226551035641       -0.16895265646951       -1.32925836060306
O           -4.25166532460448       -0.37038882727482       -2.29867455467690
C           -2.53847517081433       -1.47998509014048       -0.97693877287125
O           -1.93829667288305       -2.05903077052348       -2.10375119282713
C            1.53451854858939       -0.92124481705415       -1.35069424417184
O            0.95318804842881       -2.04738284486720       -1.95899218363752
C            3.04682952604847       -1.07219100833299       -1.20381293238146
O            3.59113940282320       -1.15604420873847       -2.49265314185871
H            5.21316074578278        1.23242290435714        1.37373993172477
H            5.48118162668710        1.96295032696279       -0.23487030829290
H            6.64808697510574        0.77016186348288        0.41267629863798
H            3.36643275609820        1.07279592336285       -0.99557530552605
H            1.28279439271236        1.36248042876226        0.34844186427718
H            1.79110064271979        1.15780715132277        2.79550069079261
H            1.43529887802598       -0.57928984819848        2.72123048100165
H           -0.75414212799344        0.05102379822343        2.24702660251110
H            0.88034286038886       -1.66322526879951        0.56658768877931
H           -1.12907832820743       -2.17543144666344        0.50261452057862
H           -2.13606443614295        1.32939388375141        0.65935262428636
H           -3.59265838858495        0.19241340530969        2.99882034623047
H           -4.42375633029443        1.52304441729257        2.14148720235618
H           -1.79225040485767        1.75335675015870        3.13053558460133
H           -4.65165689599647       -0.36604981629962        0.29194307134119
H           -5.10108173372400        1.51345258937363       -1.08419036624885
H           -2.51099879267462        0.55955354715885       -1.69360333358456
H           -3.89368386767705       -0.94751782864806       -2.99047351819763
H           -3.29050321348759       -2.19097579723855       -0.60824301384064
H           -0.97883793891621       -1.88100892840555       -2.11112295995008
H            1.33985632648758       -0.02686856023420       -1.96385812489309
H            1.47400652228319       -2.26821640378571       -2.74785661481429
H            3.27862582607688       -1.97205807494688       -0.61563487992410
H            4.55676561319500       -1.20340804533257       -2.43031942659117
