48
 energy: -84.852293752172 gnorm: 0.000625919583 xtb: 6.7.1 (edcfbbe)
C            5.61757400668982        0.97241753674854        0.52514565852401
O            4.95088182960191       -0.13073714111138       -0.08357778134947
C            3.60801274456920        0.07067120396442       -0.32634348378223
O            2.92441497109531        0.09660388659767        0.91111233642377
C            1.53053838236632        0.30834925657711        0.80709087753865
C            0.98890756144668        0.27114460785104        2.24517542478410
O            1.29370094307148       -0.93691672559142        2.88674627140629
C            0.86539636193274       -0.77416238772151       -0.05636992554617
O           -0.47636783850982       -0.40244426231132       -0.34738947576518
C           -1.50712272746509       -1.25186951378952        0.07952672245492
O           -2.10903731512542       -0.78658352541513        1.25540598535764
C           -2.75667457331212        0.47695497219676        1.11253387002194
C           -3.30440331519654        0.87476003935468        2.49624013033492
O           -3.37775726829867        2.26560491108757        2.66357747701945
C           -3.85452701745854        0.39207040589120        0.04288666620805
O           -4.58172095326122        1.58067598710595       -0.11736567911172
C           -3.22312034079601       -0.05008992711672       -1.28881805788501
O           -4.19546954290930       -0.21590713786447       -2.29241826894166
C           -2.52073909337510       -1.39131543563193       -1.06895201668964
O           -1.82087140605011       -1.82423333608836       -2.20523655411119
C            1.58385158071823       -0.93819761976944       -1.40927674504672
O            1.11571304653686       -2.06717757605462       -2.09736315977623
C            3.10027084530124       -1.08088793811714       -1.21826739432380
O            3.79282640938703       -1.13444807952363       -2.42975675949144
H            5.19614954657377        1.18205016630249        1.50949746659992
H            5.53857374936623        1.86066255522882       -0.10844048504195
H            6.65530056042812        0.66588012980600        0.61501535152308
H            3.43972265638408        1.04209026245087       -0.84240317542096
H            1.32911059742771        1.29034029324992        0.35210867254168
H            1.40329033940012        1.12059997971813        2.80060855691577
H           -0.09924878325551        0.33612799617470        2.22350722486355
H            2.25532333512921       -1.05170402675967        2.87396528899149
H            0.89529792314941       -1.72782657800658        0.48357388092997
H           -1.11167368638548       -2.24182647595192        0.33903261327812
H           -2.01075860278471        1.22182003206297        0.78998084118071
H           -2.67262055325079        0.40098490064718        3.25411117490929
H           -4.32357764326466        0.50039481868871        2.60764230656863
H           -2.49928179123615        2.62555429863073        2.84885932014113
H           -4.58800011122427       -0.36700274695792        0.34217126887890
H           -3.99175678663751        2.34714416643858       -0.08252846811848
H           -2.47238287694372        0.68971038769762       -1.61076215558512
H           -4.85521697536521        0.48856519498634       -2.19684355032671
H           -3.27510297458930       -2.13574828173683       -0.77402989743803
H           -2.43039920260055       -1.80050542791201       -2.96024216408339
H            1.38455071048313       -0.02616739120532       -1.99850847071696
H            0.14977319544592       -1.99584067035429       -2.21714780480143
H            3.31982138024141       -2.02736885041576       -0.71586443075033
H            3.54028070499997       -0.39069994441073       -2.99754146736884
