48
 energy: -84.857018845883 gnorm: 0.000630318033 xtb: 6.7.1 (edcfbbe)
C            5.68341887793388        0.91629286273810        0.54854182688462
O            4.97382234051660       -0.17919333820002       -0.02420907957265
C            3.64286809282251        0.07438952847018       -0.28539771511338
O            2.95088581603254        0.08759208961997        0.94751336615391
C            1.55660773545478        0.30536580571925        0.85091789416782
C            1.02158081458560        0.26078776881278        2.29075930061942
O            1.30628477261743       -0.96076451950666        2.91637812720696
C            0.89167952587180       -0.77234066785923       -0.01854158809075
O           -0.45944977542641       -0.42553383866319       -0.28847178296533
C           -1.46600448365458       -1.30085650236827        0.13784089367807
O           -2.06997558869442       -0.87589607876495        1.32414021936414
C           -2.73354021724407        0.38540857739589        1.22455294065339
C           -3.30140336899109        0.68189664471073        2.62070706270962
O           -4.32685485025275       -0.20641126949233        2.98060605087721
C           -3.83707393535392        0.34832920567231        0.14593635060274
O           -4.42087891155344        1.61345488307527       -0.03576468935727
C           -3.21339082759797       -0.08344405824979       -1.18672615153753
O           -4.13672574737870       -0.16965226487992       -2.24142954111515
C           -2.49643519526471       -1.42768210078124       -0.99503022358061
O           -1.82554750207169       -1.82908945139875       -2.16141652709066
C            1.59752440994795       -0.88970211537957       -1.37800054649208
O            1.14805944931036       -2.01017177955941       -2.09824725530820
C            3.11564130743243       -1.02693094974572       -1.21331881951413
O            3.76782751426255       -0.88875060993718       -2.44546507732140
H            5.23805515788039        1.20784873723255        1.50114512786683
H            5.68234490847944        1.76723344386247       -0.13825832156087
H            6.69634361591717        0.55512432171661        0.69841210901759
H            3.51307828131230        1.05420996050858       -0.78978127469192
H            1.35365123320839        1.28969737714969        0.40289163805459
H            1.45401927956182        1.09628123538159        2.85333526115614
H           -0.06445157941218        0.35380565765598        2.27480708463558
H            2.26712750831898       -1.08644284634386        2.90904499198722
H            0.94755949924050       -1.73489687863409        0.50444146262953
H           -1.04850326129332       -2.28894293223172        0.37281274404516
H           -2.00992107547243        1.16472417806832        0.94928874227277
H           -2.47734597917333        0.64256499056753        3.34183994331155
H           -3.73432295584346        1.68295536637456        2.63240866491123
H           -3.94647877621549       -1.09004643690577        3.08273112324560
H           -4.59228153796096       -0.39365928093825        0.44586368205420
H           -5.04236779273270        1.79338063041938        0.68350321112081
H           -2.48021762098179        0.66967022407535       -1.49498492651962
H           -4.95473751673309       -0.59043214708502       -1.93803294563142
H           -3.23236543082575       -2.19391931887196       -0.70172889971443
H           -2.37632912108605       -1.57584970565528       -2.92219702394510
H            1.39191886115475        0.03364736534152       -1.94327954977107
H            0.17934203392137       -1.96204356123831       -2.20186341863097
H            3.34635590520776       -1.99860635501782       -0.75446462304704
H            3.42657111307732       -1.57034285922098       -3.04611083138065
