48
 energy: -84.854047736055 gnorm: 0.000433131440 xtb: 6.7.1 (edcfbbe)
C            5.65910762088637        0.94467481545175        0.52278662464958
O            4.97954938959514       -0.09882871626442       -0.17241942886234
C            3.63357495878520        0.13538038966563       -0.38508946413800
O            2.96455414587846        0.17124407710147        0.85575938834979
C            1.57542692000089        0.40828177601511        0.75826343424918
C            1.03875159409470        0.48141471337107        2.19494774918244
O            1.50226411949536        1.59761859989156        2.90326680772817
C            0.89588613627153       -0.71294775460356       -0.05194667894578
O           -0.46985642761309       -0.42089749729300       -0.29639417117055
C           -1.44328113807881       -1.31194116371680        0.19581552913475
O           -2.01215241199638       -0.83316350426833        1.37850997412616
C           -2.70891296154371        0.40636557668871        1.23385705248564
C           -3.34057634557453        0.70805670850049        2.60167025655030
O           -4.18082506157549       -0.32847639921447        3.03256889081439
C           -3.77927204459570        0.34210914077603        0.13395597789103
O           -4.38419699479191        1.59429729354649       -0.06808866488933
C           -3.18832977896052       -0.19222402396357       -1.18229837410273
O           -4.19708319855255       -0.37217076575135       -2.14409695628756
C           -2.49803185620049       -1.53654289933410       -0.90357066342456
O           -1.92990885188849       -2.12706475669605       -2.03512648130559
C            1.58332769144184       -0.84535373446864       -1.42044786208869
O            1.00889636373247       -1.93691099215975       -2.09041414075654
C            3.09521002655314       -1.01337890639359       -1.25157995937570
O            3.66585062411812       -1.01360780291385       -2.53217978136463
H            5.22139488512771        1.09208107132692        1.51074007716418
H            5.60624410456786        1.87487582491244       -0.04980309495282
H            6.68861513970268        0.61064927948415        0.60873519518124
H            3.47789752440799        1.10190295230690       -0.91268711467273
H            1.39868028174075        1.36276250982693        0.23540350755079
H            1.40747438086996       -0.38810493774449        2.74234668051161
H           -0.05577282333803        0.45163556083733        2.16785107136624
H            1.20251668630215        2.41396046468665        2.47757862091662
H            0.99504510273503       -1.66188102813579        0.48691584079704
H           -0.98809377341985       -2.27417075806486        0.46276812538971
H           -1.98857542153763        1.19545847208989        0.97346413388441
H           -2.54340096850780        0.88800780888420        3.33311066521432
H           -3.96884964927706        1.59614522168602        2.51558910511466
H           -3.65593767130825       -1.13996454169964        3.09129749946474
H           -4.58638850085910       -0.32471959943899        0.45811948106602
H           -3.71227186188530        2.24566104486928       -0.32039677627114
H           -2.43077234727392        0.51491640525762       -1.56122229969163
H           -4.80911449224140        0.37967934308236       -2.08793384218708
H           -3.25463410990630       -2.24075179573052       -0.53920661716790
H           -1.02842725634151       -1.78449040876257       -2.17380328416626
H            1.40160506320245        0.07894353526517       -1.99193509251391
H            1.53494726563920       -2.12063526135135       -2.88490419177324
H            3.30343841180545       -1.95510941852546       -0.72345011665167
H            4.62726051095413       -1.10541191913440       -2.45536563376747
