48
 energy: -84.853469539214 gnorm: 0.000378755925 xtb: 6.7.1 (edcfbbe)
C            5.45564841656025        1.32013315270982        0.41231161913742
O            4.90599172049551        0.17103743414442       -0.22769099444837
C            3.53050497231667        0.19552621187502       -0.37733525122642
O            2.92006766156279        0.16788819839629        0.89183691573996
C            1.51215205126354        0.23693016608960        0.84365076621623
C            1.02065750292022        0.14043160249804        2.29137593790709
O            1.30450839248524       -1.14554730962090        2.78734223774060
C            0.87630122325727       -0.87035574523073       -0.02015866339792
O           -0.46246988098392       -0.48537867635476       -0.31114832683783
C           -1.49854333207330       -1.32243710066428        0.11279173188546
O           -2.08992579287036       -0.85008597128006        1.29801888443068
C           -2.68946231178605        0.43771584165692        1.18935757189959
C           -3.29036357239635        0.72866164844503        2.56883117448581
O           -3.83514763910510        2.02719353867136        2.57223186959292
C           -3.75607393226172        0.48493104811929        0.08372105225359
O           -4.21140099558159        1.79260874475893       -0.15924094952141
C           -3.16292071779371       -0.04067780199791       -1.22902260304851
O           -4.14351828281968       -0.15493907573578       -2.23133022105200
C           -2.56391025195981       -1.42794993328583       -0.99320683188036
O           -1.98379571317396       -1.96221799359442       -2.14585431874787
C            1.60839634214597       -1.09426376951021       -1.35083659245930
O            1.20577560557279       -2.34514773171237       -1.84309182375799
C            3.13197273169218       -1.04691031272989       -1.18188767933175
O            3.70004179391132       -1.03893193438233       -2.46507024141141
H            5.07154508573859        1.40954081367338        1.42886301785214
H            5.21266259171014        2.22160284439647       -0.15723304446836
H            6.52905879541222        1.15604393417235        0.42419655764407
H            3.20603584287385        1.11266826037934       -0.91671400201461
H            1.20557816186709        1.20573865675496        0.41516648008372
H            1.54123522739403        0.90920072660500        2.87213166296434
H           -0.05960765410462        0.32678609491578        2.30363123954687
H            1.16037171019988       -1.15659346538732        3.74417229425474
H            0.89706698742132       -1.81286474002013        0.53796171435113
H           -1.11979907219981       -2.32243020362562        0.35323003668474
H           -1.92367061511363        1.18968778810353        0.94702694452497
H           -2.49419403367742        0.62785306876716        3.31466445568419
H           -4.05899066595585       -0.02683345663214        2.77171028800477
H           -4.19355266282902        2.22409089022285        3.44990428156326
H           -4.59929036257652       -0.16776689392943        0.36707027618478
H           -4.36296119027590        2.23292504640058        0.69554408988271
H           -2.35994008156818        0.63827664938485       -1.55272517708956
H           -4.60429329467357        0.69466036512652       -2.30069966923642
H           -3.36099686548680       -2.09357778897224       -0.62123678638901
H           -2.60250749219274       -1.82250189697821       -2.88138349366074
H            1.31029022729525       -0.29319928178106       -2.04405926176197
H            1.62713076853710       -2.48843434969380       -2.70447932216200
H            3.45529441431927       -1.92817011735974       -0.60870384165728
H            4.66478718315975       -0.99052822531764       -2.38457590383530
