48
 energy: -84.844747214637 gnorm: 0.000628837694 xtb: 6.7.1 (edcfbbe)
C            5.68234970461354        0.78178309175783        0.63567694147215
O            4.98642524499458       -0.20682045313621       -0.11930887251927
C            3.65845559592067        0.08260193010933       -0.35653027529559
O            2.95666116846657        0.06862431685925        0.87160322466244
C            1.57771453956083        0.35616252677416        0.74898596397704
C            0.98991272991411        0.44976989667810        2.17475551581690
O            0.60293247391734       -0.77734855188028        2.73210250165339
C            0.90394884529414       -0.71817402197629       -0.12301534951397
O           -0.46748713173167       -0.41646452594376       -0.32843131309312
C           -1.41705016761898       -1.34695069776115        0.11972298114351
O           -1.96146099446489       -0.95163141027718        1.35108329589474
C           -2.65628750100221        0.29407995308320        1.30045920456361
C           -3.18043682239544        0.57784616734938        2.71102042015635
O           -4.32969342951976       -0.20022789974834        2.95476928933891
C           -3.79210649609365        0.27254635958408        0.25838597738643
O           -4.36714922008264        1.55243695108989        0.14613864401772
C           -3.22286256671892       -0.13491215565579       -1.11486144276479
O           -4.20501826054658       -0.16149288022340       -2.11322139686020
C           -2.51048429678382       -1.49042516000746       -0.95403922209406
O           -1.99250127267360       -2.00202592134057       -2.14713730355995
C            1.59289666351358       -0.74697716689911       -1.50211649923517
O            0.99117536128472       -1.67629594113933       -2.36308053827272
C            3.09953944695808       -0.98471871934819       -1.32028387814833
O            3.78370043472648       -1.02829834168497       -2.53685143048962
H            5.24654382852141        0.87828390587311        1.63106084648171
H            5.64832297654961        1.74601580036242        0.12032959452041
H            6.70550954638105        0.42462080997286        0.70151554287581
H            3.54848555643730        1.09302893535511       -0.81269267953277
H            1.45266048805329        1.33366992150185        0.25627580015463
H            1.77925489075525        0.84375975810175        2.81914980909940
H            0.15109671574584        1.15160785518588        2.16013325241891
H           -0.28211237960930       -1.01499027992770        2.40346652813850
H            1.01934361702171       -1.69041402516986        0.37110794660440
H           -0.95748422149971       -2.32631497053553        0.30520117406774
H           -1.95398261526956        1.08744650588249        1.00950671552948
H           -2.38102944899433        0.33447223171731        3.41883968125232
H           -3.41574025707006        1.64711413837100        2.78171853116353
H           -4.53137882359657       -0.18543612627201        3.90038106926954
H           -4.53340311737859       -0.47320120427481        0.56975662547974
H           -5.12499899288310        1.62478320207166        0.74201786593981
H           -2.50508504678893        0.62521361777295       -1.43988606091134
H           -4.83059059321998       -0.88113537861943       -1.94349202360557
H           -3.23569734328098       -2.23406743344922       -0.60102458575605
H           -1.18854303563631       -1.51553709675130       -2.39898946057162
H            1.42596835811350        0.22962883760053       -1.97511700521470
H            1.37729507917638       -2.55486626514924       -2.23551781107004
H            3.27520405474628       -1.96078624086675       -0.85396970137550
H            3.68320272682091       -0.19317877962121       -3.01708614541625
