48
 energy: -84.853373118466 gnorm: 0.000706801909 xtb: 6.7.1 (edcfbbe)
C            5.52708424617648        1.12463644966567        0.36628682395393
O            4.89622532733654        0.01593985766297       -0.27094431377944
C            3.53390276793284        0.14941753747334       -0.44244670008068
O            2.90945945101939        0.16404343361153        0.82617576009864
C            1.50617733131817        0.34057983684843        0.82573514166376
C            1.14894038956346        0.28090837224230        2.32559240489021
O           -0.17481409998986        0.60028696919595        2.63691440597869
C            0.80360429287009       -0.74696387390920       -0.01355942385418
O           -0.53780279256870       -0.39562468018769       -0.33369319297605
C           -1.57956519856285       -1.22538711191921        0.10775881297011
O           -2.19734157939689       -0.69801831971350        1.25249203575261
C           -2.85906134186589        0.55975926339716        1.03492116787800
C           -3.47421027851213        1.00494998787115        2.37121543812508
O           -2.70730433808311        1.95303298403443        3.06353716547867
C           -3.91505440053904        0.43280551713288       -0.06971849295610
O           -4.49700540424366        1.69285796982342       -0.26904309386025
C           -3.25228028809746       -0.08870159605143       -1.35092570811433
O           -4.24537231017324       -0.22734346907551       -2.33812214958725
C           -2.58028335612030       -1.43060167133832       -1.03608626810591
O           -1.98874375210555       -1.99167176273094       -2.17674885191976
C            1.49782229197059       -0.90530595969496       -1.37854897375181
O            0.92406013808171       -2.01715192459853       -2.02115616703242
C            3.01866061485098       -1.04957890500200       -1.24869398101853
O            3.61131421769742       -1.19011550416110       -2.50866759514340
H            5.14016611656860        1.25465289523243        1.37753654347242
H            5.36502672500983        2.03805442638427       -0.21302347223909
H            6.58361096562196        0.87642864755879        0.39264063385197
H            3.29091320512112        1.09860568818745       -0.97152825272815
H            1.23734776473832        1.32286171628652        0.40769869773259
H            1.77167957229527        1.01641368104447        2.83972494240900
H            1.41966867858841       -0.71666897954320        2.69373107015631
H           -0.77662209181487       -0.06935740594216        2.26143531230402
H            0.83768666290105       -1.70815135757451        0.51274493254356
H           -1.18607363960187       -2.20332528309055        0.42154247846368
H           -2.12442278704406        1.31007090627796        0.71496394482236
H           -3.64379419923109        0.10816986837519        2.98050552192871
H           -4.42798821654665        1.49565477679602        2.17038238229941
H           -1.80739083924673        1.61586970932327        3.20567025627442
H           -4.68079934360977       -0.29585692223151        0.24288752300883
H           -5.04453111303079        1.64565024695228       -1.06843117004211
H           -2.48641452081774        0.62990559075414       -1.68202942758478
H           -3.89839266993786       -0.79929610476656       -3.03973897237180
H           -3.35424144093438       -2.13102910460329       -0.69474843613585
H           -1.02656619110311       -1.83054386425970       -2.18017009485133
H            1.27839228195058        0.00598861701798       -1.96102489089401
H            1.52198631008284       -2.30597029294940       -2.73067029817327
H            3.26597603058177       -1.96115536456431       -0.69505802481948
H            3.67093880834259       -0.33495157628328       -2.95964735102134
