48
 energy: -84.856274563414 gnorm: 0.000661109806 xtb: 6.7.1 (edcfbbe)
C            5.69329917420935        0.71972513385944        0.57672035649192
O            4.97628067612589       -0.23707683975317       -0.19939577837542
C            3.64121656945398        0.06450391803277       -0.39990623695663
O            2.96300819769958        0.04566659257332        0.83682261745324
C            1.57988390901261        0.33051126545622        0.73956710869904
C            1.01988635071866        0.35546426011294        2.18073217710141
O            0.66460008217517       -0.91162719658198        2.67234237610690
C            0.89517508865221       -0.72040616039484       -0.15073710920717
O           -0.47297101397098       -0.41115594730629       -0.35594645732977
C           -1.42167914603161       -1.35028321004390        0.07853128762479
O           -1.97040527224001       -0.97378120198895        1.31316689176890
C           -2.64552435639841        0.28382986613063        1.26640620074841
C           -3.11327282137540        0.61365585082342        2.68066685731300
O           -2.02482888377077        1.15867767423948        3.39241176026789
C           -3.81593789405390        0.24840796620438        0.26197216953836
O           -4.51349262351968        1.46273109891959        0.25174947774190
C           -3.26111933924088       -0.13860015413830       -1.11590521348449
O           -4.31385069951957       -0.23454828495268       -2.04106499441179
C           -2.51383156029462       -1.47765451896369       -0.99233079934605
O           -1.99999737201409       -1.88891013955741       -2.23052363487009
C            1.57320011592993       -0.75703494380185       -1.52595674278841
O            0.95832963035344       -1.76460468774880       -2.28806258069779
C            3.07374890648998       -0.99643301588065       -1.35635971684952
O            3.66676983994153       -0.92502005476486       -2.62500795958066
H            5.27424538113654        0.78633729651953        1.58107548435764
H            5.65735748616510        1.70020413811526        0.09391526798833
H            6.71432949937211        0.35214692309197        0.61424109708714
H            3.52785027766231        1.07214515246666       -0.85799849137133
H            1.44436825765701        1.32358699551218        0.28311910663001
H            1.82191795494478        0.72876504202387        2.82267403990495
H            0.17038443238106        1.03979099159505        2.23234562381507
H           -0.27635827096066       -1.06792374176544        2.48728786090367
H            1.00409523551671       -1.70178652663985        0.32518730961254
H           -0.95667852553235       -2.32963397464631        0.24757654388942
H           -1.93109032445449        1.05625722767624        0.94784386185536
H           -3.47110701115861       -0.31023048873405        3.14744909208676
H           -3.93579279305054        1.33501284756161        2.60811033363006
H           -2.28984466427263        1.31913059479621        4.30874023464384
H           -4.54500648408781       -0.50635747672182        0.57629455388433
H           -4.01751798002700        2.12579261671201       -0.25029833662345
H           -2.54132885106250        0.63097602039317       -1.44410731609234
H           -3.99949710533534       -0.75290184408715       -2.79851029589507
H           -3.22963269569864       -2.24452488977617       -0.67030144462902
H           -1.06349915355319       -1.63084637716103       -2.30911666610461
H            1.42992835330133        0.21876723468074       -2.01669722898420
H            1.48435467659069       -1.90354100316585       -3.09183926476195
H            3.23877716614533       -1.98136325084156       -0.89594717473624
H            4.62325958994356       -1.05231172874312       -2.53805229303592
