48
 energy: -84.851430814562 gnorm: 0.000363592948 xtb: 6.7.1 (edcfbbe)
C            5.62607726326447        0.98468100486780        0.59010121704631
O            4.94998998456393       -0.08977738870044       -0.05769449586620
C            3.62058548525614        0.14963157438906       -0.33990395369297
O            2.90329188760483        0.23062919014454        0.87808889413511
C            1.51128943236993        0.43153432861427        0.73218224292522
C            0.90736375826025        0.53158520063903        2.14923065426447
O            0.43979724339901        1.81611125680107        2.46587600461048
C            0.87635351290142       -0.71798413171505       -0.07299260848027
O           -0.48322568439239       -0.41557733140276       -0.33506754121890
C           -1.47028418360714       -1.28351914296529        0.15792286244186
O           -2.03678502245816       -0.76995529152833        1.33403572688275
C           -2.65454385005989        0.50665612369304        1.14731860889181
C           -3.12818019059478        1.01020094291736        2.52110769468734
O           -2.46105391239329        2.16686138165340        2.95269778779126
C           -3.79790678820350        0.38310261877019        0.12007399155844
O           -4.51792241079510        1.57413102728386       -0.02604405856771
C           -3.20878557814796       -0.12670481594749       -1.21390383894054
O           -4.15973306336099       -0.18380087758013       -2.24114378111767
C           -2.53407630227044       -1.48593761925338       -0.93918547891098
O           -1.98733713748346       -2.08795733372890       -2.07620900943052
C            1.59455123354220       -0.83989823455200       -1.43334037637149
O            1.03519641132398       -1.84820715991540       -2.23061098679557
C            3.10339257409889       -1.01639519501387       -1.20842905956653
O            3.80861565303636       -1.14812115193010       -2.40649272035956
H            5.19310860321592        1.17190644592579        1.57362876514092
H            5.57172008419688        1.89100499851346       -0.01959113282945
H            6.65692130044500        0.65772510251320        0.68694370780956
H            3.49769384994644        1.10997409690521       -0.88829690205345
H            1.31666150066748        1.36780691720971        0.18567369928102
H            1.66845500929818        0.19203219517609        2.85895955726293
H            0.03768443812475       -0.12447789232826        2.22295738495613
H            1.18430106185562        2.42035531127819        2.59750920373555
H            0.96849458521069       -1.65454064963125        0.48841560317176
H           -1.04195672690284       -2.25343617368184        0.44097342691502
H           -1.90372532850910        1.20841077319756        0.75613152413247
H           -3.00578896877384        0.18866674072502        3.23819198795369
H           -4.18354180459559        1.28562895500178        2.46468326195317
H           -1.49879871427243        2.01874415890100        2.95042629898667
H           -4.52568837110846       -0.34667912744027        0.49566331628258
H           -3.95653154844470        2.25743225266825       -0.41974176211396
H           -2.44879406423999        0.57705500771660       -1.57286475752385
H           -4.85337686318376       -0.82085444188457       -2.01921002359209
H           -3.28537687915696       -2.18939170456259       -0.56133550414545
H           -1.15978328067709       -1.64214999973303       -2.32647255321505
H            1.41127916745584        0.09180920048146       -1.98461725923993
H            1.42752528700011       -2.70740187046640       -2.01829538979558
H            3.29946656375277       -1.94121378982759       -0.65426169515004
H            3.67539178893211       -0.37251051998832       -2.97146650701033
