48
 energy: -84.851457235982 gnorm: 0.000439641137 xtb: 6.7.1 (edcfbbe)
C            5.65241893381822        0.98234647928599        0.54418790345682
O            4.99303822985393       -0.03943128021132       -0.20069713189271
C            3.63478286084960        0.16145225712278       -0.37188605373317
O            2.99359805114065        0.07417938227794        0.88009583713452
C            1.60152490774785        0.30379233326530        0.81360083552018
C            1.08152666098879        0.29229095334405        2.25246464535223
O            1.30324159887116        1.56290447558592        2.81673119452071
C            0.93660676786127       -0.77067465082926       -0.06078725005790
O           -0.43033900834949       -0.46300444123219       -0.28949515020130
C           -1.39901991940537       -1.37997712221825        0.14201506690530
O           -1.98457966343298       -0.99885072577039        1.35480435783307
C           -2.68569786824794        0.24485487009220        1.29254301176503
C           -3.21942794735068        0.56176183538246        2.70798125031006
O           -4.56981848290136        0.24001938887912        2.90372311722942
C           -3.81323561328902        0.16317371375879        0.25501573725674
O           -4.48664848764992        1.39675398619761        0.22400129893479
C           -3.21825885927234       -0.20110071352734       -1.10940906260409
O           -4.20682839032155       -0.27160032664918       -2.10769522806974
C           -2.44847379722822       -1.51835988235267       -0.97700803371434
O           -1.78149304252587       -1.86933187108465       -2.16125816963849
C            1.60544646565449       -0.87187969338437       -1.44724055118190
O            1.17730322401441       -2.03382665578591       -2.10851415139809
C            3.13118008204069       -0.92478484318558       -1.33927173747710
O            3.66814516357371       -0.72367151021148       -2.61797648573048
H            5.22703323639996        1.05889987505841        1.54547467398786
H            5.56002351847097        1.94296828842485        0.02980679705790
H            6.69298903945804        0.67607904940110        0.59338881671324
H            3.43387209050934        1.16148098589898       -0.81389064346593
H            1.40535454518097        1.29378381939561        0.37328959042290
H            1.63158495886690       -0.48541422696046        2.79257759179993
H            0.01151773448019        0.05180851098768        2.24961181935155
H            1.19977066725532        1.51225966047641        3.77768455481270
H            1.03412361825675       -1.74234347268842        0.43985290901414
H           -0.94574529784291       -2.35997864061105        0.34012271676981
H           -1.98315545440848        1.02994413579664        0.98307206023770
H           -2.65590755827357       -0.04888603193890        3.41637615953073
H           -3.04556281244849        1.62140431003736        2.91985027873644
H           -5.11050025319837        0.85845285049704        2.38815342403347
H           -4.50456993782045       -0.63978576614028        0.56469741575180
H           -4.91909511574274        1.49555825643608       -0.63926196241090
H           -2.52554142849342        0.58449643588698       -1.42981357546740
H           -4.85647746113047       -0.95628839398185       -1.88380863621133
H           -3.14656818548120       -2.31961911904444       -0.68300129926470
H           -2.34484223858360       -1.62848670371952       -2.91561446599754
H            1.33603585482917        0.02272302934998       -2.02814932956131
H            0.21104495540986       -1.99159163265813       -2.23681209425061
H            3.42015944740081       -1.90519346393963       -0.93690915452530
H            4.62849421097179       -0.84977673194242       -2.57944984892988
