48
 energy: -84.849700948645 gnorm: 0.000372637494 xtb: 6.7.1 (edcfbbe)
C            5.74893117182178        0.87387277287174        0.52893354551257
O            5.00588219953688       -0.15207717094377       -0.12245896475388
C            3.68285188275560        0.15550074309056       -0.36860767440745
O            2.98884112242579        0.15890111992500        0.86377986210620
C            1.59379273989830        0.37533769451727        0.76626901969457
C            1.04450789978308        0.39499825508517        2.20283406205255
O            1.09570128642877        1.66268168037538        2.79748603796959
C            0.92967000918355       -0.73491357122567       -0.06970161807246
O           -0.43976926530727       -0.43470921525903       -0.29065220490494
C           -1.41521174161651       -1.32909139038033        0.18683127225101
O           -1.96684434892637       -0.87123994597150        1.38873324334495
C           -2.63386882720789        0.38601329065825        1.26312682118408
C           -3.13609474317922        0.78451737842013        2.65394117476881
O           -4.34459158090662        0.11769850228702        2.93971488152288
C           -3.77101640096153        0.28420927483267        0.23397631442997
O           -4.40262858238660        1.52466047492420        0.02493177629344
C           -3.20414715025829       -0.17634632050574       -1.11790714699865
O           -4.23072362015201       -0.34880257340948       -2.06053924976265
C           -2.48247715668307       -1.51445606783846       -0.91117193377401
O           -1.91474353910201       -2.04778406225805       -2.06984941907114
C            1.60678643668728       -0.78340840397039       -1.45114695919981
O            1.07856993377479       -1.78767625143492       -2.27711506623143
C            3.13226348901921       -0.90835893451629       -1.32818891143500
O            3.74868524319276       -0.71016661227767       -2.57142150348490
H            5.35809378981783        1.05213344609888        1.53161789599521
H            5.71418654111331        1.79743614551199       -0.05528299790366
H            6.76730011786900        0.50044242391855        0.58179716578752
H            3.58551082410638        1.15121595056949       -0.84885909755676
H            1.38851489499621        1.34099452304491        0.28004913085193
H            1.60830638235946       -0.34231880243019        2.78611848000111
H           -0.00841111032671        0.11067347241511        2.18865318041018
H            2.01935817075124        1.92343856513563        2.92012718662556
H            1.04034430522255       -1.69532609989149        0.44772215989899
H           -0.97044631424267       -2.30235045161865        0.43129102005746
H           -1.91267997681846        1.14018321048089        0.91760653272390
H           -2.35339419293157        0.51971109693104        3.37143101248137
H           -3.28426240572887        1.87149828207905        2.67062991730638
H           -4.52598638891425        0.17825712305975        3.88758848401479
H           -4.48975344473993       -0.46900007540956        0.58250867103655
H           -4.99770188157174        1.70607633073161        0.76554966704946
H           -2.48035013615181        0.57370623662793       -1.47346239850824
H           -4.75154319874431        0.46931981544390       -2.08533722354639
H           -3.21675220922321       -2.25306554800518       -0.57322545968133
H           -1.15018111161292       -1.51089270359448       -2.34124713899970
H            1.37662436454099        0.15565031035136       -1.96831008365830
H            1.22985505294156       -2.66172072137357       -1.88714972824139
H            3.40214157204789       -1.89233231330064       -0.91319800598196
H            3.30331489540520       -1.26504489405855       -3.23296971002296
