48
 energy: -84.742516745864 gnorm: 0.000901373213 xtb: 6.7.1 (edcfbbe)
C            5.51469465297273        1.29037979858241        0.32554797166663
O            4.94547380205128        0.19399381164262       -0.38765005275954
C            3.56279640028593        0.21084396117448       -0.44793486642925
O            3.03879437074738        0.10962461984280        0.84786626936831
C            1.62726259810542        0.22324145303533        0.97466766445884
C            1.48385084941300        0.09815526397451        2.49253303801438
O            0.03692042935571        0.00062473648263        2.94896936221132
C            0.92297247297005       -0.84072848362386        0.06935988805609
O           -0.43210034486125       -0.47650770245398       -0.20738265483634
C           -1.45895683786989       -1.33042086964882        0.19972599275083
O           -2.03783602393647       -0.84416612848775        1.38790431159040
C           -2.62978441314865        0.45437353643913        1.21713055339531
C           -3.10337707292653        0.96367819829602        2.57593218020682
O           -2.03914327318076        1.66206900888962        3.19110619917349
C           -3.76061218803265        0.38277591338706        0.18529294122078
O           -4.33417726249455        1.65590100182207        0.06190645537037
C           -3.17500536077323       -0.10601908288113       -1.14627968229331
O           -4.22337369120327       -0.19974798708277       -2.07900548581040
C           -2.49773507955793       -1.46508201495974       -0.91988113348177
O           -1.93984046751872       -1.96417940979840       -2.10720529045898
C            1.56394506389368       -0.92017083675979       -1.32560155481293
O            1.00581925921330       -2.02615590112891       -1.99941649012783
C            3.09110403113807       -0.98918698695367       -1.27723834407080
O            3.62392182452027       -1.05215783668856       -2.57277603840263
H            5.15623195831556        1.29823640834891        1.35547157590602
H            5.25479839450239        2.23349208943156       -0.16423155807424
H            6.58729052396203        1.12655745929558        0.29163868674461
H            3.20404455397919        1.15880525605198       -0.91631710649824
H            1.30063883171985        1.21290865094162        0.60514519924875
H            1.86910790094242       -0.91345516413358        2.73783652849108
H           -0.59641279608012       -0.52071767949011        2.39181251015259
H           -0.37071587692458        0.89726383327756        3.06302037562694
H            0.97288133768293       -1.82946664208645        0.54089535531505
H           -1.06764502059106       -2.32687991015792        0.45093398504556
H           -1.87062588553651        1.15017597875184        0.83514813047310
H           -3.41536229610931        0.10707336482377        3.18279756219918
H           -3.95152954276881        1.63158112984441        2.40281149674192
H           -2.34910253249463        2.05141616264351        4.02052984954440
H           -4.51574300436014       -0.34687896113079        0.51927102066068
H           -4.91411562981214        1.65091267145991       -0.71496428284288
H           -2.41896438869238        0.61511907067360       -1.49534902390208
H           -3.91360116745558       -0.71819578148920       -2.83649801742126
H           -3.26374733060698       -2.18242871261235       -0.59543868354855
H           -0.97661997581545       -1.81634009804639       -2.12232315589816
H            1.27926767914536        0.00493500943125       -1.85798728633126
H            1.59667989397482       -2.26519886429025       -2.73328537155532
H            3.41456005951231       -1.90136275540471       -0.76450065968243
H            3.71155756539028       -0.16473862386437       -2.94935027392174
