48
 energy: -84.850762251789 gnorm: 0.000740180906 xtb: 6.7.1 (edcfbbe)
C            5.70614277255754        0.84895119907452        0.58597783693178
O            4.98460200008017       -0.18187226662709       -0.08457981365439
C            3.66492155631169        0.12627949660304       -0.34318101093685
O            2.97088592726962        0.16894399674539        0.88672419048511
C            1.59025177722849        0.44920649558543        0.78198536709835
C            1.04139478120025        0.53721642466212        2.21343652070232
O            1.52207755817762        1.64029906999051        2.92966553083813
C            0.90514479981320       -0.66336509856755       -0.02784650043282
O           -0.46422727210212       -0.38611611665201       -0.27861999627026
C           -1.42804380630382       -1.28440910412361        0.20820027061563
O           -2.02063552123346       -0.82600945151728        1.38667439174389
C           -2.72863620905669        0.40657029738228        1.23895605590558
C           -3.37304435387103        0.70476035982806        2.60043905856431
O           -4.18996239204118       -0.34727307515522        3.03867706445339
C           -3.79904792957137        0.34772582370910        0.12950343083291
O           -4.40413526488295        1.60144537842588       -0.03157031627002
C           -3.18252924069079       -0.17400576756644       -1.17621096984986
O           -4.20416587487990       -0.31946607045649       -2.12761574361984
C           -2.47980509189014       -1.50916354146551       -0.89609811410284
O           -1.86766030002830       -1.96882163133230       -2.07950198433217
C            1.57920074521205       -0.77317872490960       -1.40761037336382
O            1.07187026626411       -1.86007228438465       -2.13694432214835
C            3.09585459353138       -0.95230585080206       -1.27535527956488
O            3.72641771709894       -0.81373241314035       -2.51835510591085
H            5.25600894270408        1.05955612567030        1.55766896760577
H            5.71977790630299        1.75714286501082       -0.02335756719895
H            6.71310079861211        0.46191892661463        0.70832665836152
H            3.57884512320574        1.11189156365037       -0.84919661533241
H            1.44315447249758        1.40651897272579        0.25545271821025
H            1.38127875010037       -0.34180284022875        2.76425687790022
H           -0.05369560506024        0.53627760607431        2.17277678408253
H            1.24587117491931        2.46411011433876        2.50241716474831
H            1.01822149731565       -1.61353794075670        0.50714235521266
H           -0.95836438513283       -2.23886418200091        0.48375164256549
H           -2.01551794876002        1.20345565791422        0.98515355791837
H           -2.58487745684078        0.91264068486685        3.33425057082251
H           -4.02021148363092        1.57710419716898        2.49734220116545
H           -3.64301910877453       -1.14218159135796        3.12067233585051
H           -4.60614215397147       -0.32548108691316        0.43873281234728
H           -3.80528353302531        2.20341273849716       -0.49806426049416
H           -2.42243605091685        0.54056540259569       -1.52996547471012
H           -3.81991109109524       -0.66320712012359       -2.94814490127092
H           -3.22644441763989       -2.21888480525045       -0.52484992529446
H           -1.88731860991161       -2.93646989249601       -2.11344551459808
H            1.39145488016665        0.16721153749335       -1.95010481907322
H            0.10940682400621       -1.73732144934328       -2.25473020405657
H            3.31363200576409       -1.93268759849568       -0.82926815557407
H            3.37514923043100       -1.49277902459307       -3.11631641547592
