48
 energy: -84.850492169677 gnorm: 0.000626544924 xtb: 6.7.1 (edcfbbe)
C            5.53498367194290        1.05059293622561        0.51559995162674
O            4.88188091129929       -0.01516185827629       -0.16914513916333
C            3.53459472760253        0.17538416685665       -0.39941905269887
O            2.84971817247920        0.21591119182366        0.83782659145549
C            1.44692823511919        0.37765833929087        0.73440215002856
C            0.88697325646264        0.42713532585118        2.16723689693702
O            0.75229652810538        1.73138039251097        2.66190623519289
C            0.81932672973790       -0.77180864244565       -0.07499848110510
O           -0.55144251838139       -0.50687295980386       -0.31631754757378
C           -1.50909614056932       -1.41291527189623        0.17660453261098
O           -2.08266072947958       -0.94406999436797        1.36214009721315
C           -2.77744370615579        0.29480134990813        1.22337723090286
C           -3.40450837322890        0.61813983422547        2.58035342032647
O           -4.35851138765395       -0.36782284750780        2.89804676215255
C           -3.85484256237982        0.23625639962771        0.12101371304157
O           -4.48588328578122        1.48061462590147       -0.03422518846159
C           -3.23383059880419       -0.26755717518708       -1.19468121027106
O           -4.16116647510158       -0.30611420024999       -2.24497869098401
C           -2.56958096309937       -1.62969145408745       -0.91731110905186
O           -2.02380420855164       -2.23027202801114       -2.05691892467263
C            1.51366541798877       -0.87619005895030       -1.43964698075070
O            0.98400516135845       -1.98096068581071       -2.12611765776497
C            3.03377379368834       -0.99583979573613       -1.26016475231684
O            3.67597016905510       -1.08645997311706       -2.50036115893080
H            5.16739957821305        1.12918637213358        1.53889528472788
H            5.37725216103987        1.99597950909324       -0.01062157801025
H            6.58877397807076        0.78859125650254        0.51250719378285
H            3.35513538821245        1.13760484307723       -0.93176342069014
H            1.21031654597832        1.32216619685372        0.21944445004831
H            1.54142369239646       -0.17910015478028        2.80278935428495
H           -0.11583819327681       -0.00300666684346        2.17817924362810
H            1.62737971955779        2.11777070965161        2.80699537829176
H            0.94352863030381       -1.71656790554177        0.46562941478119
H           -1.04299204002970       -2.37165387125866        0.43767591564063
H           -2.05358145117902        1.08468143738018        0.97321596693512
H           -2.60528224830581        0.64696096961990        3.32991234336825
H           -3.87622887833478        1.60489894502544        2.50008990054260
H           -4.73180797571252       -0.17255599977704        3.76896195320448
H           -4.64011180309103       -0.45381609886338        0.45057741410114
H           -3.91516986009124        2.07752041453613       -0.53980452659858
H           -2.45969203572059        0.43503687294216       -1.52586954626112
H           -4.84538025263181       -0.96486443365699       -2.05989000786702
H           -3.32334327047967       -2.32737249300755       -0.53302634960759
H           -1.13569863291509       -1.87280479223699       -2.22853424195422
H            1.28833601846296        0.04644865156121       -2.00195991871572
H            1.60990889343937       -2.24477330013942       -2.82085832789297
H            3.27196862007551       -1.92524212350759       -0.73262103693511
H            3.68936658888950       -0.22565795961446       -2.94543153299064
