48
 energy: -84.855992097731 gnorm: 0.000448520220 xtb: 6.7.1 (edcfbbe)
C            5.66272812136486        0.90636162751465        0.47323459674637
O            4.97817845382667       -0.13787271979462       -0.21599741350634
C            3.63802321937894        0.10825021574014       -0.43694500344098
O            2.96444342243067        0.14603566517140        0.80383089823231
C            1.58408298122447        0.43435629852302        0.70463551390518
C            1.05781078205321        0.59623163099441        2.13018241100581
O            1.39634399889558        1.89017356725833        2.56979228656579
C            0.88339205838916       -0.68512775258952       -0.08561007362739
O           -0.48263435122764       -0.39125558617812       -0.32055753967639
C           -1.45786661051116       -1.26938183474250        0.18167429538749
O           -2.03022881370548       -0.80196391401660        1.36805473363445
C           -2.69298764284754        0.45804360159870        1.24321984359484
C           -3.29838986517547        0.77511272643538        2.61662358499303
O           -2.34139752501632        0.73545230764004        3.64200439632072
C           -3.77483676669945        0.43097267244043        0.15817597241162
O           -4.28710677323714        1.73078116453919        0.03139136925173
C           -3.17893263045762       -0.07842215545482       -1.16055479551930
O           -4.21701889231197       -0.16525813389445       -2.10718228342788
C           -2.52431637807099       -1.44574763561762       -0.91109046189261
O           -2.00056055196122       -1.99176778914858       -2.09070572312559
C            1.55600129999565       -0.82719339218633       -1.45815267340203
O            0.95901283715614       -1.90766352394689       -2.13124668289364
C            3.07255323177495       -1.02322867345091       -1.31043724464879
O            3.68264014304385       -1.12292915703777       -2.56641022214784
H            5.21207024909529        1.07704041775803        1.45178973914485
H            5.63216757193920        1.82979474317337       -0.11227247775419
H            6.68555184911641        0.55823918055982        0.57853994678030
H            3.49353067230379        1.08756829081456       -0.94804667844127
H            1.43799964376057        1.38864098826331        0.17433682209469
H            1.53505742341322       -0.16867327697782        2.75417138077421
H           -0.02751226271994        0.45601761301962        2.13523058469646
H            1.06111994630158        2.02161212042215        3.46812470203336
H            0.98370906566483       -1.62935777067683        0.46259977128416
H           -1.01537453840840       -2.24089995209396        0.43858710245180
H           -1.95802106573766        1.22906731164690        0.97505501608855
H           -4.10983654179916        0.06574877215578        2.81633996314828
H           -3.70197484650059        1.78778112036050        2.59194177845582
H           -2.03296157359693       -0.17801653301046        3.72810114052785
H           -4.57454539403988       -0.26605678117262        0.45796397500343
H           -4.87667001358484        1.74822756341644       -0.73873887533497
H           -2.40777009402566        0.62746228919683       -1.50586836808060
H           -3.91364077423501       -0.72598305502242       -2.83775668128284
H           -3.29121189369645       -2.14235130464181       -0.54936301545782
H           -1.05558130810599       -1.76786048024738       -2.17585664775897
H            1.36688560295178        0.10324087601181       -2.02018627029094
H            1.55533635551463       -2.19774254733807       -2.84146856405115
H            3.27557662779079       -1.97170204202000       -0.80217127708922
H            3.76348756399267       -0.25085077188806       -2.98051584289639
