48
 energy: -84.750957603265 gnorm: 0.000656060319 xtb: 6.7.1 (edcfbbe)
C            5.70207092801684        0.88535032315418        0.44751645047085
O            4.97735679863710       -0.20822539676013       -0.11046216756863
C            3.63627093997200        0.03413459337313       -0.34028828701702
O            2.96211731807456        0.17730326231772        0.89248125399459
C            1.57301912986623        0.41716929709972        0.76226849449963
C            1.01307683868510        0.54728657367727        2.18519253506853
O            1.36975721234296        1.75000208016923        2.80621344087410
C            0.87092725455602       -0.72259318381608        0.00169899609861
O           -0.46420324295080       -0.35929158479977       -0.29170949659624
C           -1.50854074325976       -1.15276347600866        0.22846949798670
O           -2.06598412623677       -0.57331033029925        1.35890790186956
C           -2.67419733321625        0.74666552368315        1.10447022108407
C           -3.23511848285974        1.36510688644221        2.34405572056890
O           -4.17831107612437        0.29752473345114        2.95919709056147
C           -3.75205577539138        0.62284555881657        0.01679247910616
O           -4.28520922864058        1.89301457622703       -0.25956688652100
C           -3.15338951467196        0.01301749917287       -1.25874012209527
O           -4.07355227502616       -0.08317149896446       -2.31369803757814
C           -2.55588096409055       -1.35840385802004       -0.88113848921445
O           -2.01703482722432       -2.06052724923705       -1.96580623627874
C            1.58187402766666       -0.97415632585598       -1.33660615644897
O            0.99310688129585       -2.09530291725968       -1.94205136864341
C            3.08303185242792       -1.16947430916711       -1.11745970160210
O            3.68335773427075       -1.29545900509921       -2.37753572247290
H            5.34327054121471        1.10991513237038        1.45185809818352
H            5.60316213585909        1.76940429906788       -0.18801864067410
H            6.73653005768923        0.55659272931393        0.48130322491146
H            3.49492916122308        0.95870346968980       -0.94011984024871
H            1.40137870566951        1.35405541989264        0.21014084699423
H            1.36148148833864       -0.31554804071158        2.76663630288548
H           -0.07634931545365        0.53531814234730        2.13956839162967
H            2.33321816002256        1.78543278881554        2.89065291775405
H            0.90022439650507       -1.64246653280761        0.59799520072325
H           -1.11996778439990       -2.13158182141438        0.54710146446607
H           -1.88992277759415        1.41427786806728        0.72123067260005
H           -2.40972714896191        1.46483093521513        3.07147529595605
H           -3.68439125026705       -0.50714794446943        3.21908624971663
H           -4.58691322388663        0.72331779265308        3.74052725940577
H           -4.55770176393590       -0.04362280976791        0.37477598561840
H           -4.33940665295446        2.36152587646804        0.59707507312077
H           -2.35816977577331        0.66633729328539       -1.63235172432196
H           -4.84920091637730       -0.58589945047828       -2.02503811954691
H           -3.35713546157458       -1.99513315521201       -0.48419512913114
H           -1.11807381413469       -1.73871766530468       -2.14743440960044
H            1.43724852606638       -0.08652154629135       -1.97339810370589
H            1.53094604578691       -2.34402847575878       -2.71102855507632
H            3.25147441539883       -2.06898424904742       -0.50707109504178
H            4.64150593669270       -1.39139183307190       -2.26760384429008
