48
Coordinates from ORCA-job 3_opt_3c E -1337.093570827044
  C           5.45196898967473      0.24981784653559      1.52007775814196
  O           4.69101512617019      0.68484111225974      0.38067821213726
  C           3.32120774102615      0.49547788556732      0.52139809603644
  O           3.03369965731223     -0.89606430570986      0.37266521424915
  C           1.65048357352717     -1.19127899568381      0.59806281628904
  C           1.48934974153588     -2.69940152194578      0.52293969189299
  O           2.12749345256422     -3.37351415272606      1.61149338536581
  C           0.80163219330054     -0.48018115466250     -0.47213296913185
  O          -0.60012623649724     -0.75368689435231     -0.30793795917907
  C          -1.25737261564629     -0.18974744195105      0.80653894973413
  O          -1.79694748640433      1.09168717199736      0.52114070139270
  C          -2.75210548762151      1.09968459925815     -0.55941327672987
  C          -3.12533682248805      2.55446429673028     -0.77491845780992
  O          -3.77061903994835      3.13901470387534      0.35911807235374
  C          -3.94059001299604      0.20502179982374     -0.19456917523950
  O          -4.85020275320976      0.08597146962324     -1.29447871279173
  C          -3.45065188633746     -1.19763148136659      0.13459722594782
  O          -4.50503020857736     -2.02151906416437      0.64000559703288
  C          -2.38952209499053     -1.12885041895009      1.22285096498109
  O          -1.83794326924327     -2.40570690525846      1.52398712014556
  C           1.11500062619498      1.01219363859846     -0.52348535193263
  O           0.45972661859130      1.55881889385881     -1.66518837757178
  C           2.61872652275434      1.25452014317089     -0.59633079765626
  O           2.80507796462278      2.66491079113945     -0.48596092607909
  H           5.38729384691274     -0.83676957063268      1.64582423702924
  H           5.09526059867513      0.74730312992309      2.43151844380332
  H           6.48825262454582      0.53422834650343      1.32890296855544
  H           2.97183109841126      0.84030700602789      1.51578157028363
  H           1.36589932051923     -0.84214576212302      1.60609900942263
  H           1.97204166355270     -3.06007598299970     -0.39288289146589
  H           0.42053062039484     -2.94001606102487      0.47878970343956
  H           1.60819281997045     -3.20065228601583      2.40723187238112
  H           1.04659654075242     -0.91596244687494     -1.45070863266262
  H          -0.57364825852585     -0.02827486754969      1.64845818774065
  H          -2.28060204889020      0.72338454348503     -1.48001223342665
  H          -2.21524947681464      3.11240402899992     -1.04108933449707
  H          -3.82762723373424      2.62885108903561     -1.61161484374351
  H          -3.15537745586047      3.07701789449966      1.10180272601098
  H          -4.45107494000175      0.61942486180311      0.68732385128997
  H          -5.48341768979707      0.81275936303542     -1.24858185307040
  H          -3.01906144434749     -1.65021429728515     -0.77335978129400
  H          -5.17051874126783     -2.09468718873397     -0.05683356293755
  H          -2.84788013482300     -0.68867160671372      2.12420496484518
  H          -2.56989843603925     -2.97163853883530      1.80390901175413
  H           0.74465395681640      1.49482065610741      0.39708986497676
  H           0.66056012524111      2.50423889533492     -1.68155667338231
  H           3.00653942260677      0.87899636746205     -1.55763064098978
  H           3.72829892838859      2.85823341090384     -0.69378176564169
