48
 energy: -84.819429910222 gnorm: 0.000517705476 xtb: 6.7.1 (edcfbbe)
C            5.11052565366312        2.75981808085994       -0.90331959125067
O            4.74160036960163        1.41349655023066       -1.13261118549505
C            3.38599043455721        1.18114482711126       -1.06872576700126
O            2.97386511729664        1.30523082644631        0.28090602996925
C            1.60376883577918        1.09059052824059        0.49714338334281
C            1.37912869524291        1.37026226444497        1.99644868367832
O            0.03631587716303        1.47644145318990        2.37057325828112
C            1.18391794010258       -0.33609593664248        0.08283098300496
O           -0.23931264481998       -0.40226686020583        0.14112347236208
C           -0.85194224901296       -1.45080689155906        0.82793312586120
O           -1.62957842555085       -0.93018857083444        1.88235932515693
C           -2.67253712842171       -0.05843912921779        1.45798185450644
C           -3.37792724690211        0.44709776403975        2.72509296504451
O           -4.31658148123775        1.45381123946648        2.42748582289988
C           -3.65085928381575       -0.77340260868746        0.51440445117285
O           -4.61525830507477        0.10305481857205       -0.00927300118918
C           -2.85797880986779       -1.35835727832421       -0.65768441151525
O           -3.66750097884107       -2.12157931632078       -1.51852707695034
C           -1.76704513129143       -2.27278493717092       -0.10162987607046
O           -1.01797046131353       -2.85844918556736       -1.13217303423452
C            1.64968379049940       -0.63742156588601       -1.35145333107278
O            1.57795603999862       -2.00358503978016       -1.66420567249763
C            3.11458781729614       -0.23424831577720       -1.58301877655642
O            3.40347732077393       -0.27422677456479       -2.95213718012852
H            4.81874263265087        3.08036343323369        0.09992105983010
H            4.64768625913122        3.41985761049056       -1.64579575661571
H            6.19247334327588        2.79324111238908       -1.00473181496178
H            2.82196106017793        1.90820864935825       -1.69154511830634
H            1.00140138060728        1.79696547107030       -0.09891983051304
H            1.84042372748613        2.33463964621896        2.22231400216098
H            1.90050812253646        0.59623909473768        2.57544601638508
H           -0.39043958545808        0.61490805530546        2.25675000339550
H            1.63535348205719       -1.06838046168550        0.76488151714630
H           -0.11466538004825       -2.11178731068399        1.30134336202575
H           -2.24142709183598        0.79657850552837        0.91461639343633
H           -2.62139997241738        0.79744326618104        3.43431426464719
H           -3.93765440404264       -0.37050626514465        3.18503884401643
H           -3.84371816816193        2.26317261694434        2.19976309204919
H           -4.13773080077440       -1.60147603410267        1.05811066310143
H           -4.96849959059528        0.63021287669527        0.72565444606577
H           -2.38710351468963       -0.53218397130376       -1.21334499252340
H           -4.46496884174674       -1.60512514504033       -1.68760916107471
H           -2.24167438027778       -3.05764771112154        0.50855542364061
H           -1.64720119762546       -3.10982967830458       -1.82332862340274
H            1.01560527783897       -0.04981343883221       -2.03667262494198
H            0.67162996524260       -2.32381061259512       -1.51101710895752
H            3.76359653901317       -0.92368269296394       -1.02409142179767
H            3.19077033805179       -1.16668720347418       -3.25569134715009
