48
-84.829045904031
C 5.137528 1.935736 0.207917
O 4.059141 1.326486 0.906407
C 3.330369 0.417690 0.167555
O 2.584310 1.118696 -0.807448
C 1.664338 0.327863 -1.539796
C 1.118289 1.199240 -2.673295
O 2.082426 1.402957 -3.673062
C 0.605245 -0.219257 -0.558636
O -0.409896 -0.958314 -1.214915
C -1.784381 -0.641325 -1.193058
O -2.497133 -1.582031 -0.427410
C -2.583081 -1.368395 0.979851
C -3.414957 -2.536144 1.538749
O -3.504948 -2.502041 2.941723
C -3.247102 -0.019539 1.288168
O -3.306387 0.253504 2.664624
C -2.410993 1.080417 0.632793
O -3.025722 2.341962 0.735409
C -2.267227 0.789770 -0.868349
O -1.465806 1.745863 -1.501138
C 1.388710 -1.165653 0.373033
O 0.579469 -1.844688 1.301473
C 2.439917 -0.363374 1.146551
O 3.275369 -1.213244 1.882436
H 4.767400 2.567079 -0.601983
H 5.811460 1.173733 -0.195369
H 5.657235 2.540471 0.946392
H 3.998612 -0.311713 -0.341630
H 2.190556 -0.527116 -1.996489
H 0.770163 2.148836 -2.257742
H 0.279914 0.685871 -3.143543
H 2.831100 1.867670 -3.277689
H 0.197790 0.620690 0.006688
H -2.102018 -0.870062 -2.221639
H -1.585468 -1.364685 1.442080
H -2.989720 -3.477474 1.178672
H -4.436408 -2.456642 1.159665
H -2.664511 -2.778609 3.330567
H -4.257677 -0.005645 0.845540
H -3.647883 -0.538588 3.116128
H -1.428635 1.108391 1.130576
H -3.302717 2.464588 1.653675
H -3.292922 0.834073 -1.276102
H -1.831512 2.614654 -1.275386
H 1.914467 -1.899350 -0.255976
H 0.114926 -2.545994 0.825238
H 1.939850 0.361617 1.805495
H 2.718517 -1.737980 2.476736
