      -----------------------------------------------------------      
     |                   =====================                   |     
     |                           x T B                           |     
     |                   =====================                   |     
     |                         S. Grimme                         |     
     |          Mulliken Center for Theoretical Chemistry        |     
     |                    University of Bonn                     |     
      -----------------------------------------------------------      

   * xtb version 6.7.1 (edcfbbe) compiled by 'conda@5dfe00f5fb80' on 2026-06-10

   xtb is free software: you can redistribute it and/or modify it under
   the terms of the GNU Lesser General Public License as published by
   the Free Software Foundation, either version 3 of the License, or
   (at your option) any later version.
   
   xtb is distributed in the hope that it will be useful,
   but WITHOUT ANY WARRANTY; without even the implied warranty of
   MERCHANTABILITY or FITNESS FOR A PARTICULAR PURPOSE.  See the
   GNU Lesser General Public License for more details.
   
   Cite this work as:
   * C. Bannwarth, E. Caldeweyher, S. Ehlert, A. Hansen, P. Pracht,
     J. Seibert, S. Spicher, S. Grimme, WIREs Comput. Mol. Sci., 2020, 11,
     e01493. DOI: 10.1002/wcms.1493
   
   for GFN2-xTB:
   * C. Bannwarth, S. Ehlert and S. Grimme., J. Chem. Theory Comput., 2019,
     15, 1652-1671. DOI: 10.1021/acs.jctc.8b01176
   for GFN1-xTB:
   * S. Grimme, C. Bannwarth, P. Shushkov, J. Chem. Theory Comput., 2017,
     13, 1989-2009. DOI: 10.1021/acs.jctc.7b00118
   for GFN0-xTB:
   * P. Pracht, E. Caldeweyher, S. Ehlert, S. Grimme, ChemRxiv, 2019, preprint.
     DOI: 10.26434/chemrxiv.8326202.v1
   for GFN-FF:
   * S. Spicher and S. Grimme, Angew. Chem. Int. Ed., 2020, 59, 15665-15673.
     DOI: 10.1002/anie.202004239
   
   for ALPB and GBSA implicit solvation:
   * S. Ehlert, M. Stahn, S. Spicher, S. Grimme, J. Chem. Theory Comput.,
     2021, 17, 4250-4261. DOI: 10.1021/acs.jctc.1c00471
   
   for ddCOSMO and CPCM-X implicit solvation:
   * M. Stahn, S. Ehlert, S. Grimme, J. Phys. Chem. A,
     2023, XX, XXXX-XXXX. DOI: 10.1021/acs.jpca.3c04382
   
   for DFT-D4:
   * E. Caldeweyher, C. Bannwarth and S. Grimme, J. Chem. Phys., 2017,
     147, 034112. DOI: 10.1063/1.4993215
   * E. Caldeweyher, S. Ehlert, A. Hansen, H. Neugebauer, S. Spicher,
     C. Bannwarth and S. Grimme, J. Chem. Phys., 2019, 150, 154122.
     DOI: 10.1063/1.5090222
   * E. Caldeweyher, J.-M. Mewes, S. Ehlert and S. Grimme, Phys. Chem. Chem. Phys.
     2020, 22, 8499-8512. DOI: 10.1039/D0CP00502A
   
   for sTDA-xTB:
   * S. Grimme and C. Bannwarth, J. Chem. Phys., 2016, 145, 054103.
     DOI: 10.1063/1.4959605
   
   in the mass-spec context:
   * V. Asgeirsson, C. Bauer and S. Grimme, Chem. Sci., 2017, 8, 4879.
     DOI: 10.1039/c7sc00601b
   * J. Koopman and S. Grimme, ACS Omega 2019, 4, 12, 15120-15133.
     DOI: 10.1021/acsomega.9b02011
   
   for metadynamics refer to:
   * S. Grimme, J. Chem. Theory Comput., 2019, 155, 2847-2862
     DOI: 10.1021/acs.jctc.9b00143
   
   for SPH calculations refer to:
   * S. Spicher and S. Grimme, J. Chem. Theory Comput., 2021, 17, 1701-1714
     DOI: 10.1021/acs.jctc.0c01306
   
   for ONIOM refer to:
   * C. Plett, A. Katbashev, S. Ehlert, S. Grimme, M. Bursch,
     Phys. Chem. Chem. Phys., 2023, 25, 17860-17868. DOI: 10.1039/D3CP02178E
   
   for DIPRO refer to:
   * J. Kohn, N. Gildemeister, S. Grimme, D. Fazzi, A. Hansen,
     J. Chem. Phys., 2023, just accepted.
   
   for PTB refer to:
   * S. Grimme, M. Mueller, A. Hansen, J. Chem. Phys., 2023, 158, 124111.
     DOI: 10.1063/5.0137838
   
   with help from (in alphabetical order)
   P. Atkinson, C. Bannwarth, F. Bohle, G. Brandenburg, E. Caldeweyher
   M. Checinski, S. Dohm, S. Ehlert, S. Ehrlich, I. Gerasimov, C. Hölzer
   A. Katbashev, J. Kohn, J. Koopman, C. Lavigne, S. Lehtola, F. März, M. Müller,
   F. Musil, H. Neugebauer, J. Pisarek, C. Plett, P. Pracht, F. Pultar,
   J. Seibert, P. Shushkov, S. Spicher, M. Stahn, M. Steiner, T. Strunk,
   J. Stückrath, T. Rose, and J. Unsleber
   
 * started run on 2026/09/22 at 13:26:17.008     
   ID    Z sym.   atoms
    1    6 C      1, 3, 5, 6, 8, 10, 12, 13, 15, 17, 19, 21, 23
    2    8 O      2, 4, 7, 9, 11, 14, 16, 18, 20, 22, 24
    3    1 H      25-48
constraining angle 11 10 9 8 to   80.0000000°, actual value:   81.0571939°
constraining angle 10 9 8 5 to -120.0000000°, actual value: -119.7362103°

           -------------------------------------------------
          |                Calculation Setup                |
           -------------------------------------------------

          program call               : /media/aldo/Aldo/envs/chem/bin/xtb start.xyz --gfn 2 --opt normal --input c.inp
          coordinate file            : start.xyz
          omp threads                :                     1


           -------------------------------------------------
          |                 G F N 2 - x T B                 |
           -------------------------------------------------

        Reference                      10.1021/acs.jctc.8b01176
      * Hamiltonian:
        H0-scaling (s, p, d)           1.850000    2.230000    2.230000
        zeta-weighting                 0.500000
      * Dispersion:
        s8                             2.700000
        a1                             0.520000
        a2                             5.000000
        s9                             5.000000
      * Repulsion:
        kExp                           1.500000    1.000000
        rExp                           1.000000
      * Coulomb:
        alpha                          2.000000
        third order                    shell-resolved
        anisotropic                    true
        a3                             3.000000
        a5                             4.000000
        cn-shift                       1.200000
        cn-exp                         4.000000
        max-rad                        5.000000


          ...................................................
          :                      SETUP                      :
          :.................................................:
          :  # basis functions                 120          :
          :  # atomic orbitals                 120          :
          :  # shells                           72          :
          :  # electrons                       142          :
          :  max. iterations                   250          :
          :  Hamiltonian                  GFN2-xTB          :
          :  restarted?                      false          :
          :  GBSA solvation                  false          :
          :  PC potential                    false          :
          :  electronic temp.          300.0000000     K    :
          :  accuracy                    1.0000000          :
          :  -> integral cutoff          0.2500000E+02      :
          :  -> integral neglect         0.1000000E-07      :
          :  -> SCF convergence          0.1000000E-05 Eh   :
          :  -> wf. convergence          0.1000000E-03 e    :
          :  Broyden damping             0.4000000          :
          :  net charge                          0          :
          :  unpaired electrons                  0          :
          ...................................................

 iter      E             dE          RMSdq      gap      omega  full diag
   1    -85.3532194 -0.853532E+02  0.464E+00    9.81       0.0  T
   2    -85.4360238 -0.828044E-01  0.252E+00    9.56       1.0  T
   3    -85.4380675 -0.204368E-02  0.761E-01    9.70       1.0  T
   4    -85.4394735 -0.140603E-02  0.136E-01    9.67       1.0  T
   5    -85.4396156 -0.142114E-03  0.710E-02    9.69       1.0  T
   6    -85.4396278 -0.122068E-04  0.146E-02    9.69       1.0  T
   7    -85.4396295 -0.166286E-05  0.586E-03    9.69       2.5  T
   8    -85.4396297 -0.265373E-06  0.160E-03    9.69       9.0  T
   9    -85.4396297 -0.105488E-07  0.663E-04    9.69      21.8  T
  10    -85.4396298 -0.269478E-08  0.147E-04    9.69      98.5  T

   *** convergence criteria satisfied after 10 iterations ***

         #    Occupation            Energy/Eh            Energy/eV
      -------------------------------------------------------------
         1        2.0000           -0.7398286             -20.1318
       ...           ...                  ...                  ...
        65        2.0000           -0.4274816             -11.6324
        66        2.0000           -0.4264820             -11.6052
        67        2.0000           -0.4209441             -11.4545
        68        2.0000           -0.4192395             -11.4081
        69        2.0000           -0.4186882             -11.3931
        70        2.0000           -0.4158755             -11.3165
        71        2.0000           -0.4094202             -11.1409 (HOMO)
        72                         -0.0532016              -1.4477 (LUMO)
        73                         -0.0321575              -0.8750
        74                         -0.0118968              -0.3237
        75                         -0.0033245              -0.0905
        76                          0.0059678               0.1624
       ...                                ...                  ...
       120                          0.3084460               8.3932
      -------------------------------------------------------------
                  HL-Gap            0.3562185 Eh            9.6932 eV
             Fermi-level           -0.2313109 Eh           -6.2943 eV

 SCC (total)                   0 d,  0 h,  0 min,  0.255 sec
 SCC setup                      ...        0 min,  0.001 sec (  0.334%)
 Dispersion                     ...        0 min,  0.002 sec (  0.678%)
 classical contributions        ...        0 min,  0.000 sec (  0.164%)
 integral evaluation            ...        0 min,  0.027 sec ( 10.556%)
 iterations                     ...        0 min,  0.115 sec ( 45.293%)
 molecular gradient             ...        0 min,  0.108 sec ( 42.501%)
 printout                       ...        0 min,  0.001 sec (  0.462%)

         :::::::::::::::::::::::::::::::::::::::::::::::::::::
         ::                     SUMMARY                     ::
         :::::::::::::::::::::::::::::::::::::::::::::::::::::
         :: total energy             -84.819332505127 Eh    ::
         :: gradient norm              0.000395795079 Eh/a0 ::
         :: HOMO-LUMO gap              9.693199981020 eV    ::
         ::.................................................::
         :: SCC energy               -85.438812042503 Eh    ::
         :: -> isotropic ES            0.235742637342 Eh    ::
         :: -> anisotropic ES         -0.014170566258 Eh    ::
         :: -> anisotropic XC         -0.017325279941 Eh    ::
         :: -> dispersion             -0.047725386894 Eh    ::
         :: repulsion energy           0.619389126009 Eh    ::
         :: add. restraining           0.000090411367 Eh    ::
         :: total charge              -0.000000000000 e     ::
         :::::::::::::::::::::::::::::::::::::::::::::::::::::

      ----------------------------------------------------------- 
     |                   =====================                   |
     |                        A N C O P T                        |
     |                   =====================                   |
     |               Approximate Normal Coordinate               |
     |                Rational Function Optimizer                |
      ----------------------------------------------------------- 
      ----------------------------------------------------------- 
     |                   =====================                   |
     |                        A N C O P T                        |
     |                   =====================                   |
     |               Approximate Normal Coordinate               |
     |                Rational Function Optimizer                |
      ----------------------------------------------------------- 

          ...................................................
          :                      SETUP                      :
          :.................................................:
          :   optimization level            normal          :
          :   max. optcycles                   200          :
          :   ANC micro-cycles                  20          :
          :   degrees of freedom               138          :
          :.................................................:
          :   RF solver                   davidson          :
          :   write xtbopt.log                true          :
          :   linear?                        false          :
          :   energy convergence         0.5000000E-05 Eh   :
          :   grad. convergence          0.1000000E-02 Eh/α :
          :   maxmium RF displ.          1.0000000          :
          :   Hlow (freq-cutoff)         0.1000000E-01      :
          :   Hmax (freq-cutoff)         5.0000000          :
          :   S6 in model hess.         20.0000000          :
          ...................................................

generating ANC from exact Hessian ...
Using Lindh-Hessian (1995)
 Shifting diagonal of input Hessian by    9.5237489706945528E-003
 Lowest  eigenvalues of input Hessian
    0.000000    0.000000    0.000000    0.000000    0.000000    0.000000
    0.010000    0.010224    0.010319    0.011147    0.012052    0.012848
    0.012922    0.013843    0.014261    0.014743    0.015439    0.015891
 Highest eigenvalues
    1.523135    1.539936    1.575254    1.654394    1.693573    1.776921


........................................................................
.............................. CYCLE    1 ..............................
........................................................................

 iter      E             dE          RMSdq      gap      omega  full diag
   1    -85.4396298 -0.854396E+02  0.650E-05    9.69       0.0  T
   2    -85.4396298 -0.223537E-10  0.381E-05    9.69     378.6  T
   3    -85.4396298 -0.332534E-11  0.162E-05    9.69     891.7  T
     SCC iter.                  ...        0 min,  0.033 sec
     gradient                   ...        0 min,  0.111 sec
 * total energy  :   -84.8193325 Eh     change       -0.1436149E-09 Eh
   gradient norm :     0.0003964 Eh/α   predicted     0.0000000E+00 (-100.00%)
   displ. norm   :     0.0162897 α      lambda       -0.1647012E-06
   maximum displ.:     0.0115176 α      in ANC's #2, #3, #6, ...

   *** GEOMETRY OPTIMIZATION CONVERGED AFTER 1 ITERATIONS ***

------------------------------------------------------------------------
 total energy gain   :        -0.0000000 Eh       -0.0000 kcal/mol
 total RMSD          :         0.0000000 a0        0.0000 Å
 total power (kW/mol):        -0.0000004 (step)   -0.0000 (real)
------------------------------------------------------------------------

 ANCopt (total)                0 d,  0 h,  0 min,  0.304 sec
 optimizer setup                ...        0 min,  0.000 sec (  0.095%)
 model hessian                  ...        0 min,  0.114 sec ( 37.715%)
 ANC generation                 ...        0 min,  0.009 sec (  3.020%)
 coordinate transformation      ...        0 min,  0.000 sec (  0.028%)
 single point calculation       ...        0 min,  0.178 sec ( 58.645%)
 optimization log               ...        0 min,  0.000 sec (  0.127%)
 hessian update                 ...        0 min,  0.000 sec (  0.001%)
 rational function              ...        0 min,  0.000 sec (  0.090%)

================
 final structure:
================
48
 xtb: 6.7.1 (edcfbbe)
C            5.58285500000000        0.91554700000000        0.73306600000000
O            4.91956900000000       -0.19310100000000        0.15770500000000
C            3.64737000000000        0.07569800000000       -0.29549700000000
O            2.81903700000000        0.29856200000000        0.83427100000000
C            1.44664700000000        0.49687300000000        0.57855700000000
C            0.79354400000000        0.75869800000000        1.95141600000000
O            0.13285000000000        2.00124100000000        2.03399300000000
C            0.86821000000000       -0.72789900000000       -0.15115300000000
O           -0.46763600000000       -0.52508600000000       -0.58390800000000
C           -1.45067800000000       -1.38314800000000       -0.08554200000000
O           -1.88523900000000       -1.01478900000000        1.19310200000000
C           -2.44795700000000        0.29257600000000        1.20096500000000
C           -2.80110700000000        0.67461200000000        2.64374600000000
O           -2.84608600000000        2.07270900000000        2.78710400000000
C           -3.66421800000000        0.39094400000000        0.27318500000000
O           -4.17028400000000        1.70350400000000        0.22469800000000
C           -3.24489300000000       -0.01071100000000       -1.14733000000000
O           -4.34342300000000       -0.06308200000000       -2.02531600000000
C           -2.60118200000000       -1.39683300000000       -1.10168200000000
O           -2.07567400000000       -1.78359600000000       -2.34319100000000
C            1.67994300000000       -0.97191900000000       -1.43426500000000
O            1.24340200000000       -2.12718700000000       -2.10338400000000
C            3.17165600000000       -1.12270100000000       -1.12663400000000
O            3.91492800000000       -1.15113700000000       -2.31247000000000
H            5.05603800000000        1.27002600000000        1.62280100000000
H            5.66919900000000        1.73456000000000        0.01001500000000
H            6.57324800000000        0.56025900000000        1.00649300000000
H            3.63191300000000        0.98032700000000       -0.94099600000000
H            1.30160300000000        1.37573900000000       -0.07393300000000
H            1.58545200000000        0.68631600000000        2.70589800000000
H            0.04038900000000       -0.00133100000000        2.16044200000000
H            0.78443100000000        2.70404400000000        1.92749400000000
H            0.93750700000000       -1.60529300000000        0.50252300000000
H           -1.05621900000000       -2.40352900000000        0.03229300000000
H           -1.69749500000000        1.00724900000000        0.83039400000000
H           -2.06535500000000        0.22517400000000        3.31938800000000
H           -3.79126200000000        0.29837700000000        2.91198500000000
H           -1.94670400000000        2.40569600000000        2.65086500000000
H           -4.44667700000000       -0.30673600000000        0.61932900000000
H           -4.05281700000000        2.11013900000000        1.09707100000000
H           -2.50146200000000        0.71457500000000       -1.51284600000000
H           -4.85954100000000        0.73880100000000       -1.87707700000000
H           -3.35713200000000       -2.12182900000000       -0.76073700000000
H           -2.74115800000000       -1.56083900000000       -3.00746500000000
H            1.54636700000000       -0.09084900000000       -2.08501300000000
H            0.29057400000000       -2.03996800000000       -2.26037200000000
H            3.33511400000000       -2.03591000000000       -0.53667500000000
H            3.54235400000000       -1.85477600000000       -2.85983300000000

 Bond Distances (Angstroems)
 ---------------------------
C1-O2=1.4142         C1-H25=1.0931        C1-H26=1.0959        C1-H27=1.0871        O2-C1=1.4142         O2-C3=1.3770         
C3-O2=1.3770         C3-O4=1.4185         C3-C23=1.5340        C3-H28=1.1114        O4-C3=1.4185         O4-C5=1.4100         
C5-O4=1.4100         C5-C6=1.5427         C5-C8=1.5385         C5-H29=1.1042        C6-C5=1.5427         C6-O7=1.4097         
C6-H30=1.0962        C6-H31=1.0902        O7-C6=1.4097         O7-H32=0.9643        C8-C5=1.5385         C8-O9=1.4188         
C8-C21=1.5378        C8-H33=1.0963        O9-C8=1.4188         O9-C10=1.3968        C10-O9=1.3968        C10-O11=1.3998       
C10-C19=1.5351       C10-H34=1.1003       O11-C10=1.3998       O11-C12=1.4233       C12-O11=1.4233       C12-C13=1.5337       
C12-C15=1.5329       C12-H35=1.1006       C13-C12=1.5337       C13-O14=1.4061       C13-H36=1.0954       C13-H37=1.0927       
O14-C13=1.4061       O14-H38=0.9687       C15-C12=1.5329       C15-O16=1.4076       C15-C17=1.5346       C15-H39=1.1040       
O16-C15=1.4076       O16-H40=0.9696       C17-C15=1.5346       C17-O18=1.4073       C17-C19=1.5290       C17-H41=1.1011       
O18-C17=1.4073       O18-H42=0.9651       C19-C10=1.5351       C19-C17=1.5290       C19-O20=1.4025       C19-H43=1.1015       
O20-C19=1.4025       O20-H44=0.9663       C21-C8=1.5378        C21-O22=1.4046       C21-C23=1.5305       C21-H45=1.1034       
O22-C21=1.4046       O22-H46=0.9696       C23-C3=1.5340        C23-C21=1.5305       C23-O24=1.3998       C23-H47=1.0994       
O24-C23=1.3998       O24-H48=0.9662       H25-C1=1.0931        H26-C1=1.0959        H27-C1=1.0871        H28-C3=1.1114        
H29-C5=1.1042        H30-C6=1.0962        H31-C6=1.0902        H32-O7=0.9643        H33-C8=1.0963        H34-C10=1.1003       
H35-C12=1.1006       H36-C13=1.0954       H37-C13=1.0927       H38-O14=0.9687       H39-C15=1.1040       H40-O16=0.9696       
H41-C17=1.1011       H42-O18=0.9651       H43-C19=1.1015       H44-O20=0.9663       H45-C21=1.1034       H46-O22=0.9696       
H47-C23=1.0994       H48-O24=0.9662       
 C  H  Rav=1.0984 sigma=0.0058  Rmin=1.0871  Rmax=1.1114    17
 C  C  Rav=1.5349 sigma=0.0038  Rmin=1.5290  Rmax=1.5427    10
 O  H  Rav=0.9671 sigma=0.0020  Rmin=0.9643  Rmax=0.9696     7
 O  C  Rav=1.4064 sigma=0.0108  Rmin=1.3770  Rmax=1.4233    15

 selected bond angles (degree)
 --------------------
H25-C1-O2=111.06               H26-C1-O2=110.76               H26-C1-H25=109.43              H27-C1-O2=105.87               
H27-C1-H25=109.90              H27-C1-H26=109.78              C3-O2-C1=114.47                O4-C3-O2=107.94                
C23-C3-O2=108.20               C23-C3-O4=111.91               H28-C3-O2=111.28               H28-C3-O4=109.06               
H28-C3-C23=108.47              C5-O4-C3=116.49                C6-C5-O4=105.93                C8-C5-O4=109.88                
C8-C5-C6=113.45                H29-C5-O4=110.30               H29-C5-C6=109.58               H29-C5-C8=107.70               
O7-C6-C5=113.59                H30-C6-C5=107.19               H30-C6-O7=110.88               H31-C6-C5=110.17               
H31-C6-O7=106.23               H31-C6-H30=108.73              H32-O7-C6=108.62               O9-C8-C5=112.64                
C21-C8-C5=108.88               C21-C8-O9=105.38               H33-C8-C5=109.30               H33-C8-O9=110.84               
H33-C8-C21=109.70              C10-O9-C8=117.78               O11-C10-O9=112.50              C19-C10-O9=107.26              
C19-C10-O11=111.98             H34-C10-O9=110.83              H34-C10-O11=104.92             H34-C10-C19=109.35             

 selected dihedral angles (degree)
 ---------------------------------
C3-O2-C1-H25= 62.71           C3-O2-C1-H26=300.89           C3-O2-C1-H27=181.95           O4-C3-O2-C1=290.33            
C23-C3-O2-C1=169.04           H28-C3-O2-C1= 49.97           C5-O4-C3-O2=184.41            C5-O4-C3-C23=303.36           
C5-O4-C3-H28= 63.38           C6-C5-O4-C3=181.80            C8-C5-O4-C3= 58.89            H29-C5-O4-C3=300.31           
O7-C6-C5-O4=121.44            O7-C6-C5-C8=242.06            O7-C6-C5-H29=  2.46           H30-C6-C5-O4=358.61           
H30-C6-C5-C8=119.22           H30-C6-C5-H29=239.62          H31-C6-C5-O4=240.47           H31-C6-C5-C8=  1.08           
H31-C6-C5-H29=121.48          H32-O7-C6-C5=296.57           H32-O7-C6-H30= 57.34          H32-O7-C6-H31=175.31          
O9-C8-C5-O4=187.28            O9-C8-C5-C6= 68.91            O9-C8-C5-H29=307.45           C21-C8-C5-O4=303.78           
C21-C8-C5-C6=185.42           C21-C8-C5-H29= 63.96          H33-C8-C5-O4= 63.60           H33-C8-C5-C6=305.24           
H33-C8-C5-H29=183.78          C10-O9-C8-C5=240.26           C10-O9-C8-C21=121.69          C10-O9-C8-H33=  3.08          
O11-C10-O9-C8= 81.06          C19-C10-O9-C8=204.63          H34-C10-O9-C8=323.94          
           -------------------------------------------------
          |                Final Singlepoint                |
           -------------------------------------------------

          ...................................................
          :                      SETUP                      :
          :.................................................:
          :  # basis functions                 120          :
          :  # atomic orbitals                 120          :
          :  # shells                           72          :
          :  # electrons                       142          :
          :  max. iterations                   250          :
          :  Hamiltonian                  GFN2-xTB          :
          :  restarted?                      false          :
          :  GBSA solvation                  false          :
          :  PC potential                    false          :
          :  electronic temp.          300.0000000     K    :
          :  accuracy                    1.0000000          :
          :  -> integral cutoff          0.2500000E+02      :
          :  -> integral neglect         0.1000000E-07      :
          :  -> SCF convergence          0.1000000E-05 Eh   :
          :  -> wf. convergence          0.1000000E-03 e    :
          :  Broyden damping             0.4000000          :
          :  net charge                          0          :
          :  unpaired electrons                  0          :
          ...................................................

 iter      E             dE          RMSdq      gap      omega  full diag
   1    -85.4396298 -0.854396E+02  0.474E-06    9.69       0.0  T
   2    -85.4396298 -0.412115E-12  0.280E-06    9.69    5157.7  T
   3    -85.4396298  0.426326E-13  0.126E-06    9.69   11498.7  T

   *** convergence criteria satisfied after 3 iterations ***

         #    Occupation            Energy/Eh            Energy/eV
      -------------------------------------------------------------
         1        2.0000           -0.7398289             -20.1318
       ...           ...                  ...                  ...
        65        2.0000           -0.4274819             -11.6324
        66        2.0000           -0.4264821             -11.6052
        67        2.0000           -0.4209436             -11.4545
        68        2.0000           -0.4192401             -11.4081
        69        2.0000           -0.4186877             -11.3931
        70        2.0000           -0.4158766             -11.3166
        71        2.0000           -0.4094199             -11.1409 (HOMO)
        72                         -0.0532017              -1.4477 (LUMO)
        73                         -0.0321584              -0.8751
        74                         -0.0118964              -0.3237
        75                         -0.0033247              -0.0905
        76                          0.0059672               0.1624
       ...                                ...                  ...
       120                          0.3084460               8.3932
      -------------------------------------------------------------
                  HL-Gap            0.3562182 Eh            9.6932 eV
             Fermi-level           -0.2313108 Eh           -6.2943 eV

 SCC (total)                   0 d,  0 h,  0 min,  0.177 sec
 SCC setup                      ...        0 min,  0.001 sec (  0.382%)
 Dispersion                     ...        0 min,  0.001 sec (  0.610%)
 classical contributions        ...        0 min,  0.000 sec (  0.262%)
 integral evaluation            ...        0 min,  0.031 sec ( 17.438%)
 iterations                     ...        0 min,  0.033 sec ( 18.792%)
 molecular gradient             ...        0 min,  0.109 sec ( 61.732%)
 printout                       ...        0 min,  0.001 sec (  0.750%)

         :::::::::::::::::::::::::::::::::::::::::::::::::::::
         ::                     SUMMARY                     ::
         :::::::::::::::::::::::::::::::::::::::::::::::::::::
         :: total energy             -84.819332505272 Eh    ::
         :: gradient norm              0.000396489551 Eh/a0 ::
         :: HOMO-LUMO gap              9.693191197195 eV    ::
         ::.................................................::
         :: SCC energy               -85.438812042649 Eh    ::
         :: -> isotropic ES            0.235742873136 Eh    ::
         :: -> anisotropic ES         -0.014170516824 Eh    ::
         :: -> anisotropic XC         -0.017325323659 Eh    ::
         :: -> dispersion             -0.047725377789 Eh    ::
         :: repulsion energy           0.619389126009 Eh    ::
         :: add. restraining           0.000090411367 Eh    ::
         :: total charge               0.000000000000 e     ::
         :::::::::::::::::::::::::::::::::::::::::::::::::::::

========================================================================
 RELAXED SCAN
------------------------------------------------------------------------
 output written to xtbscan.log
 scaning constraint 2
... step 1 ...
      ----------------------------------------------------------- 
     |                   =====================                   |
     |                        A N C O P T                        |
     |                   =====================                   |
     |               Approximate Normal Coordinate               |
     |                Rational Function Optimizer                |
      ----------------------------------------------------------- 
 current energy:         -84.81933251
    bias energy:           0.00009041
unbiased energy:         -84.81942292
... step 2 ...
      ----------------------------------------------------------- 
     |                   =====================                   |
     |                        A N C O P T                        |
     |                   =====================                   |
     |               Approximate Normal Coordinate               |
     |                Rational Function Optimizer                |
      ----------------------------------------------------------- 
 current energy:         -84.81915723
    bias energy:           0.00005974
unbiased energy:         -84.81921697
... step 3 ...
      ----------------------------------------------------------- 
     |                   =====================                   |
     |                        A N C O P T                        |
     |                   =====================                   |
     |               Approximate Normal Coordinate               |
     |                Rational Function Optimizer                |
      ----------------------------------------------------------- 
 current energy:         -84.81804552
    bias energy:           0.00009368
unbiased energy:         -84.81813919
... step 4 ...
      ----------------------------------------------------------- 
     |                   =====================                   |
     |                        A N C O P T                        |
     |                   =====================                   |
     |               Approximate Normal Coordinate               |
     |                Rational Function Optimizer                |
      ----------------------------------------------------------- 
 current energy:         -84.81690208
    bias energy:           0.00007614
unbiased energy:         -84.81697822
... step 5 ...
      ----------------------------------------------------------- 
     |                   =====================                   |
     |                        A N C O P T                        |
     |                   =====================                   |
     |               Approximate Normal Coordinate               |
     |                Rational Function Optimizer                |
      ----------------------------------------------------------- 
 current energy:         -84.81576334
    bias energy:           0.00006480
unbiased energy:         -84.81582814
... step 6 ...
      ----------------------------------------------------------- 
     |                   =====================                   |
     |                        A N C O P T                        |
     |                   =====================                   |
     |               Approximate Normal Coordinate               |
     |                Rational Function Optimizer                |
      ----------------------------------------------------------- 
 current energy:         -84.81456035
    bias energy:           0.00005331
unbiased energy:         -84.81461365
... step 7 ...
      ----------------------------------------------------------- 
     |                   =====================                   |
     |                        A N C O P T                        |
     |                   =====================                   |
     |               Approximate Normal Coordinate               |
     |                Rational Function Optimizer                |
      ----------------------------------------------------------- 
 current energy:         -84.81307142
    bias energy:           0.00013782
unbiased energy:         -84.81320924
... step 8 ...
      ----------------------------------------------------------- 
     |                   =====================                   |
     |                        A N C O P T                        |
     |                   =====================                   |
     |               Approximate Normal Coordinate               |
     |                Rational Function Optimizer                |
      ----------------------------------------------------------- 
 current energy:         -84.81060694
    bias energy:           0.00043218
unbiased energy:         -84.81103912
... step 9 ...
      ----------------------------------------------------------- 
     |                   =====================                   |
     |                        A N C O P T                        |
     |                   =====================                   |
     |               Approximate Normal Coordinate               |
     |                Rational Function Optimizer                |
      ----------------------------------------------------------- 
 current energy:         -84.80817881
    bias energy:           0.00029163
unbiased energy:         -84.80847044
... step 10 ...
      ----------------------------------------------------------- 
     |                   =====================                   |
     |                        A N C O P T                        |
     |                   =====================                   |
     |               Approximate Normal Coordinate               |
     |                Rational Function Optimizer                |
      ----------------------------------------------------------- 
 current energy:         -84.80540847
    bias energy:           0.00043533
unbiased energy:         -84.80584380
... step 11 ...
      ----------------------------------------------------------- 
     |                   =====================                   |
     |                        A N C O P T                        |
     |                   =====================                   |
     |               Approximate Normal Coordinate               |
     |                Rational Function Optimizer                |
      ----------------------------------------------------------- 
 current energy:         -84.80269057
    bias energy:           0.00030750
unbiased energy:         -84.80299808
... step 12 ...
      ----------------------------------------------------------- 
     |                   =====================                   |
     |                        A N C O P T                        |
     |                   =====================                   |
     |               Approximate Normal Coordinate               |
     |                Rational Function Optimizer                |
      ----------------------------------------------------------- 
 current energy:         -84.80183696
    bias energy:           0.00000982
unbiased energy:         -84.80184678
... step 13 ...
      ----------------------------------------------------------- 
     |                   =====================                   |
     |                        A N C O P T                        |
     |                   =====================                   |
     |               Approximate Normal Coordinate               |
     |                Rational Function Optimizer                |
      ----------------------------------------------------------- 
 current energy:         -84.80264559
    bias energy:           0.00003865
unbiased energy:         -84.80268424
... step 14 ...
      ----------------------------------------------------------- 
     |                   =====================                   |
     |                        A N C O P T                        |
     |                   =====================                   |
     |               Approximate Normal Coordinate               |
     |                Rational Function Optimizer                |
      ----------------------------------------------------------- 
 current energy:         -84.80407472
    bias energy:           0.00007967
unbiased energy:         -84.80415439
... step 15 ...
      ----------------------------------------------------------- 
     |                   =====================                   |
     |                        A N C O P T                        |
     |                   =====================                   |
     |               Approximate Normal Coordinate               |
     |                Rational Function Optimizer                |
      ----------------------------------------------------------- 
 current energy:         -84.80569584
    bias energy:           0.00007768
unbiased energy:         -84.80577352
... step 16 ...
      ----------------------------------------------------------- 
     |                   =====================                   |
     |                        A N C O P T                        |
     |                   =====================                   |
     |               Approximate Normal Coordinate               |
     |                Rational Function Optimizer                |
      ----------------------------------------------------------- 
 current energy:         -84.80710363
    bias energy:           0.00004888
unbiased energy:         -84.80715251
... step 17 ...
      ----------------------------------------------------------- 
     |                   =====================                   |
     |                        A N C O P T                        |
     |                   =====================                   |
     |               Approximate Normal Coordinate               |
     |                Rational Function Optimizer                |
      ----------------------------------------------------------- 
 current energy:         -84.80807394
    bias energy:           0.00002074
unbiased energy:         -84.80809468
... step 18 ...
      ----------------------------------------------------------- 
     |                   =====================                   |
     |                        A N C O P T                        |
     |                   =====================                   |
     |               Approximate Normal Coordinate               |
     |                Rational Function Optimizer                |
      ----------------------------------------------------------- 
 current energy:         -84.80857102
    bias energy:           0.00001714
unbiased energy:         -84.80858816
... step 19 ...
      ----------------------------------------------------------- 
     |                   =====================                   |
     |                        A N C O P T                        |
     |                   =====================                   |
     |               Approximate Normal Coordinate               |
     |                Rational Function Optimizer                |
      ----------------------------------------------------------- 
 current energy:         -84.81304534
    bias energy:           0.00000444
unbiased energy:         -84.81304978
... step 20 ...
      ----------------------------------------------------------- 
     |                   =====================                   |
     |                        A N C O P T                        |
     |                   =====================                   |
     |               Approximate Normal Coordinate               |
     |                Rational Function Optimizer                |
      ----------------------------------------------------------- 
 current energy:         -84.81296993
    bias energy:           0.00001572
unbiased energy:         -84.81298564
... step 21 ...
      ----------------------------------------------------------- 
     |                   =====================                   |
     |                        A N C O P T                        |
     |                   =====================                   |
     |               Approximate Normal Coordinate               |
     |                Rational Function Optimizer                |
      ----------------------------------------------------------- 
 current energy:         -84.81220656
    bias energy:           0.00006284
unbiased energy:         -84.81226940
... step 22 ...
      ----------------------------------------------------------- 
     |                   =====================                   |
     |                        A N C O P T                        |
     |                   =====================                   |
     |               Approximate Normal Coordinate               |
     |                Rational Function Optimizer                |
      ----------------------------------------------------------- 
 current energy:         -84.81075364
    bias energy:           0.00011675
unbiased energy:         -84.81087039
... step 23 ...
      ----------------------------------------------------------- 
     |                   =====================                   |
     |                        A N C O P T                        |
     |                   =====================                   |
     |               Approximate Normal Coordinate               |
     |                Rational Function Optimizer                |
      ----------------------------------------------------------- 
 current energy:         -84.80892885
    bias energy:           0.00012213
unbiased energy:         -84.80905098
... step 24 ...
      ----------------------------------------------------------- 
     |                   =====================                   |
     |                        A N C O P T                        |
     |                   =====================                   |
     |               Approximate Normal Coordinate               |
     |                Rational Function Optimizer                |
      ----------------------------------------------------------- 
 current energy:         -84.80725559
    bias energy:           0.00007339
unbiased energy:         -84.80732898
... step 25 ...
      ----------------------------------------------------------- 
     |                   =====================                   |
     |                        A N C O P T                        |
     |                   =====================                   |
     |               Approximate Normal Coordinate               |
     |                Rational Function Optimizer                |
      ----------------------------------------------------------- 
 current energy:         -84.80611560
    bias energy:           0.00002216
unbiased energy:         -84.80613776
... step 26 ...
      ----------------------------------------------------------- 
     |                   =====================                   |
     |                        A N C O P T                        |
     |                   =====================                   |
     |               Approximate Normal Coordinate               |
     |                Rational Function Optimizer                |
      ----------------------------------------------------------- 
 current energy:         -84.80555939
    bias energy:           0.00001288
unbiased energy:         -84.80557227
... step 27 ...
      ----------------------------------------------------------- 
     |                   =====================                   |
     |                        A N C O P T                        |
     |                   =====================                   |
     |               Approximate Normal Coordinate               |
     |                Rational Function Optimizer                |
      ----------------------------------------------------------- 
 current energy:         -84.80552447
    bias energy:           0.00001177
unbiased energy:         -84.80553624
... step 28 ...
      ----------------------------------------------------------- 
     |                   =====================                   |
     |                        A N C O P T                        |
     |                   =====================                   |
     |               Approximate Normal Coordinate               |
     |                Rational Function Optimizer                |
      ----------------------------------------------------------- 
 current energy:         -84.80602188
    bias energy:           0.00002276
unbiased energy:         -84.80604464
... step 29 ...
      ----------------------------------------------------------- 
     |                   =====================                   |
     |                        A N C O P T                        |
     |                   =====================                   |
     |               Approximate Normal Coordinate               |
     |                Rational Function Optimizer                |
      ----------------------------------------------------------- 
 current energy:         -84.80695638
    bias energy:           0.00003721
unbiased energy:         -84.80699359
... step 30 ...
      ----------------------------------------------------------- 
     |                   =====================                   |
     |                        A N C O P T                        |
     |                   =====================                   |
     |               Approximate Normal Coordinate               |
     |                Rational Function Optimizer                |
      ----------------------------------------------------------- 
 current energy:         -84.80797945
    bias energy:           0.00002432
unbiased energy:         -84.80800377
... step 31 ...
      ----------------------------------------------------------- 
     |                   =====================                   |
     |                        A N C O P T                        |
     |                   =====================                   |
     |               Approximate Normal Coordinate               |
     |                Rational Function Optimizer                |
      ----------------------------------------------------------- 
 current energy:         -84.80874766
    bias energy:           0.00000933
unbiased energy:         -84.80875700
... step 32 ...
      ----------------------------------------------------------- 
     |                   =====================                   |
     |                        A N C O P T                        |
     |                   =====================                   |
     |               Approximate Normal Coordinate               |
     |                Rational Function Optimizer                |
      ----------------------------------------------------------- 
 current energy:         -84.80894623
    bias energy:           0.00001120
unbiased energy:         -84.80895744
... step 33 ...
      ----------------------------------------------------------- 
     |                   =====================                   |
     |                        A N C O P T                        |
     |                   =====================                   |
     |               Approximate Normal Coordinate               |
     |                Rational Function Optimizer                |
      ----------------------------------------------------------- 
 current energy:         -84.80836887
    bias energy:           0.00004377
unbiased energy:         -84.80841264
... step 34 ...
      ----------------------------------------------------------- 
     |                   =====================                   |
     |                        A N C O P T                        |
     |                   =====================                   |
     |               Approximate Normal Coordinate               |
     |                Rational Function Optimizer                |
      ----------------------------------------------------------- 
 current energy:         -84.80700679
    bias energy:           0.00010531
unbiased energy:         -84.80711210
... step 35 ...
      ----------------------------------------------------------- 
     |                   =====================                   |
     |                        A N C O P T                        |
     |                   =====================                   |
     |               Approximate Normal Coordinate               |
     |                Rational Function Optimizer                |
      ----------------------------------------------------------- 
 current energy:         -84.80510690
    bias energy:           0.00013231
unbiased energy:         -84.80523920
... step 36 ...
      ----------------------------------------------------------- 
     |                   =====================                   |
     |                        A N C O P T                        |
     |                   =====================                   |
     |               Approximate Normal Coordinate               |
     |                Rational Function Optimizer                |
      ----------------------------------------------------------- 
 current energy:         -84.80329879
    bias energy:           0.00009323
unbiased energy:         -84.80339203
           -------------------------------------------------
          |                Property Printout                |
           -------------------------------------------------

    * Orbital Energies and Occupations

         #    Occupation            Energy/Eh            Energy/eV
      -------------------------------------------------------------
         1        2.0000           -0.7405784             -20.1522
       ...           ...                  ...                  ...
        59        2.0000           -0.4674750             -12.7206
        60        2.0000           -0.4624879             -12.5849
        61        2.0000           -0.4581419             -12.4667
        62        2.0000           -0.4534936             -12.3402
        63        2.0000           -0.4356095             -11.8535
        64        2.0000           -0.4350050             -11.8371
        65        2.0000           -0.4312511             -11.7349
        66        2.0000           -0.4256355             -11.5821
        67        2.0000           -0.4239247             -11.5356
        68        2.0000           -0.4233714             -11.5205
        69        2.0000           -0.4205463             -11.4436
        70        2.0000           -0.4203612             -11.4386
        71        2.0000           -0.4085622             -11.1175 (HOMO)
        72                         -0.0537889              -1.4637 (LUMO)
        73                         -0.0401940              -1.0937
        74                         -0.0151448              -0.4121
        75                         -0.0019750              -0.0537
        76                          0.0011125               0.0303
        77                          0.0075702               0.2060
        78                          0.0108032               0.2940
        79                          0.0214679               0.5842
        80                          0.0293337               0.7982
        81                          0.0375737               1.0224
        82                          0.0557571               1.5172
       ...                                ...                  ...
       120                          0.3185193               8.6674
      -------------------------------------------------------------
                  HL-Gap            0.3547733 Eh            9.6539 eV
             Fermi-level           -0.2311756 Eh           -6.2906 eV

     #   Z          covCN         q      C6AA      α(0)
     1   6 C        3.653     0.033    20.327     6.474
     2   8 O        1.703    -0.287    18.769     5.849
     3   6 C        3.653     0.248    17.036     5.927
     4   8 O        1.702    -0.345    19.798     6.007
     5   6 C        3.745     0.093    19.106     6.235
     6   6 C        3.676     0.078    19.492     6.325
     7   8 O        1.656    -0.426    21.354     6.238
     8   6 C        3.740     0.091    19.144     6.243
     9   8 O        1.701    -0.316    19.276     5.928
    10   6 C        3.638     0.243    17.156     5.958
    11   8 O        1.701    -0.348    19.851     6.015
    12   6 C        3.742     0.083    19.275     6.264
    13   6 C        3.675     0.074    19.569     6.338
    14   8 O        1.656    -0.424    21.320     6.233
    15   6 C        3.729     0.088    19.214     6.258
    16   8 O        1.657    -0.441    21.664     6.283
    17   6 C        3.733     0.101    19.005     6.222
    18   8 O        1.656    -0.444    21.726     6.292
    19   6 C        3.729     0.101    19.008     6.224
    20   8 O        1.657    -0.423    21.293     6.229
    21   6 C        3.728     0.085    19.263     6.266
    22   8 O        1.656    -0.428    21.405     6.246
    23   6 C        3.725     0.090    19.190     6.255
    24   8 O        1.657    -0.434    21.520     6.262
    25   1 H        0.924     0.046     2.368     2.407
    26   1 H        0.924     0.043     2.415     2.430
    27   1 H        0.925     0.074     2.039     2.233
    28   1 H        0.922     0.011     2.869     2.649
    29   1 H        0.923     0.041     2.436     2.441
    30   1 H        0.923     0.037     2.491     2.468
    31   1 H        0.925     0.065     2.146     2.291
    32   1 H        0.805     0.307     0.702     1.316
    33   1 H        0.923     0.029     2.599     2.521
    34   1 H        0.923     0.044     2.391     2.418
    35   1 H        0.923     0.048     2.347     2.396
    36   1 H        0.923     0.035     2.516     2.481
    37   1 H        0.924     0.055     2.258     2.350
    38   1 H        0.805     0.307     0.701     1.315
    39   1 H        0.923     0.029     2.607     2.525
    40   1 H        0.805     0.300     0.722     1.335
    41   1 H        0.923     0.048     2.343     2.394
    42   1 H        0.805     0.317     0.673     1.289
    43   1 H        0.922     0.031     2.569     2.507
    44   1 H        0.805     0.325     0.650     1.266
    45   1 H        0.924     0.074     2.038     2.232
    46   1 H        0.805     0.291     0.748     1.359
    47   1 H        0.923     0.034     2.525     2.485
    48   1 H        0.805     0.318     0.670     1.286

 Mol. C6AA /au·bohr⁶  :      19189.703039
 Mol. C8AA /au·bohr⁸  :     409566.028922
 Mol. α(0) /au        :        198.965722


Wiberg/Mayer (AO) data.
largest (>0.10) Wiberg bond orders for each atom

 ---------------------------------------------------------------------------
     #   Z sym  total        # sym  WBO       # sym  WBO       # sym  WBO
 ---------------------------------------------------------------------------
     1   6 C    3.937 --    25 H    0.980    27 H    0.979    26 H    0.977
                             2 O    0.975
     2   8 O    2.112 --     3 C    1.019     1 C    0.975
     3   6 C    3.935 --     2 O    1.019    23 C    0.959     4 O    0.946
                            28 H    0.942
     4   8 O    2.072 --     5 C    0.970     3 C    0.946
     5   6 C    3.944 --     6 C    0.974     4 O    0.970     8 C    0.963
                            29 H    0.956
     6   6 C    3.963 --     7 O    1.018     5 C    0.974    30 H    0.965
                            31 H    0.959
     7   8 O    1.969 --     6 C    1.018    32 H    0.886
     8   6 C    3.948 --     9 O    0.965    21 C    0.964     5 C    0.963
                            33 H    0.958
     9   8 O    2.104 --    10 C    0.987     8 C    0.965
    10   6 C    3.928 --     9 O    0.987    11 O    0.969    19 C    0.954
                            34 H    0.946
    11   8 O    2.080 --    10 C    0.969    12 C    0.957
    12   6 C    3.941 --    13 C    0.977    15 C    0.964    11 O    0.957
                            35 H    0.948
    13   6 C    3.966 --    14 O    1.019    12 C    0.977    37 H    0.968
                            36 H    0.965
    14   8 O    1.970 --    13 C    1.019    38 H    0.886
    15   6 C    3.958 --    16 O    0.995    17 C    0.969    12 C    0.964
                            39 H    0.957
    16   8 O    1.964 --    15 C    0.995    40 H    0.891
    17   6 C    3.962 --    18 O    0.998    19 C    0.971    15 C    0.969
                            41 H    0.955
    18   8 O    1.958 --    17 C    0.998    42 H    0.881
    19   6 C    3.970 --    20 O    1.017    17 C    0.971    10 C    0.954
                            43 H    0.953
    20   8 O    1.967 --    19 C    1.017    44 H    0.874
    21   6 C    3.956 --    22 O    1.001     8 C    0.964    23 C    0.962
                            45 H    0.956
    22   8 O    1.983 --    21 C    1.001    46 H    0.896
    23   6 C    3.966 --    24 O    1.008    21 C    0.962     3 C    0.959
                            47 H    0.953
    24   8 O    1.961 --    23 C    1.008    48 H    0.878
    25   1 H    0.998 --     1 C    0.980
    26   1 H    0.998 --     1 C    0.977
    27   1 H    0.994 --     1 C    0.979
    28   1 H    1.000 --     3 C    0.942
    29   1 H    0.998 --     5 C    0.956
    30   1 H    0.999 --     6 C    0.965
    31   1 H    0.995 --     6 C    0.959
    32   1 H    0.906 --     7 O    0.886
    33   1 H    0.999 --     8 C    0.958
    34   1 H    0.998 --    10 C    0.946
    35   1 H    0.998 --    12 C    0.948
    36   1 H    0.999 --    13 C    0.965
    37   1 H    0.997 --    13 C    0.968
    38   1 H    0.906 --    14 O    0.886
    39   1 H    0.999 --    15 C    0.957
    40   1 H    0.910 --    16 O    0.891
    41   1 H    0.998 --    17 C    0.955
    42   1 H    0.900 --    18 O    0.881
    43   1 H    0.999 --    19 C    0.953
    44   1 H    0.894 --    20 O    0.874
    45   1 H    0.994 --    21 C    0.956
    46   1 H    0.915 --    22 O    0.896
    47   1 H    0.999 --    23 C    0.953
    48   1 H    0.899 --    24 O    0.878
 ---------------------------------------------------------------------------

Topologies differ in total number of bonds
Writing topology from bond orders to xtbtopo.mol

molecular dipole:
                 x           y           z       tot (Debye)
 q only:       -0.655       0.096      -0.339
   full:       -1.022       0.358      -0.497       3.030
molecular quadrupole (traceless):
                xx          xy          yy          xz          yz          zz
 q only:       12.392      -0.353       0.196       2.029      -3.536     -12.588
  q+dip:       11.740      -0.984       7.285       4.411     -10.355     -19.025
   full:       12.926      -0.363       5.759       3.888      -8.536     -18.685

           -------------------------------------------------
          |                Geometry Summary                 |
           -------------------------------------------------

      molecular mass/u    :      356.3235988
   center of mass at/Å    :       -0.0535853       0.0565536       0.2204228
  moments of inertia/u·Å² :        0.1366371E+04   0.3566148E+04   0.4460238E+04
rotational constants/cm⁻¹ :        0.1233753E-01   0.4727126E-02   0.3779536E-02

 * 49 selected distances

     #   Z          #   Z                                           value/Å
     1   6 C        2   8 O                                       1.4143088
     2   8 O        3   6 C                                       1.3777598
     3   6 C        4   8 O                                       1.4141123
     4   8 O        5   6 C                                       1.4139748
     5   6 C        6   6 C                                       1.5341230
     6   6 C        7   8 O                                       1.3977992
     5   6 C        8   6 C                                       1.5393786
     8   6 C        9   8 O                                       1.4210771
     9   8 O       10   6 C                                       1.3945343
    10   6 C       11   8 O                                       1.4031975
    11   8 O       12   6 C                                       1.4272313
    12   6 C       13   6 C                                       1.5356356
    13   6 C       14   8 O                                       1.3967911
    12   6 C       15   6 C                                       1.5356949
    15   6 C       16   8 O                                       1.4087633
    15   6 C       17   6 C                                       1.5326721
    17   6 C       18   8 O                                       1.4064247
    10   6 C       19   6 C                                       1.5379457
    17   6 C       19   6 C                                       1.5281810
    19   6 C       20   8 O                                       1.3929329
     8   6 C       21   6 C                                       1.5398766 (max)
    21   6 C       22   8 O                                       1.4059314
     3   6 C       23   6 C                                       1.5313245
    21   6 C       23   6 C                                       1.5387995
    23   6 C       24   8 O                                       1.4002878
     1   6 C       25   1 H                                       1.0933644
     1   6 C       26   1 H                                       1.0953149
     1   6 C       27   1 H                                       1.0873074
     3   6 C       28   1 H                                       1.1097125
     5   6 C       29   1 H                                       1.1018596
     6   6 C       30   1 H                                       1.0988416
     6   6 C       31   1 H                                       1.0876392
     7   8 O       32   1 H                                       0.9654729
     8   6 C       33   1 H                                       1.1003506
    10   6 C       34   1 H                                       1.1000928
    12   6 C       35   1 H                                       1.0984091
    13   6 C       36   1 H                                       1.1010797
    13   6 C       37   1 H                                       1.0925971
    14   8 O       38   1 H                                       0.9649760
    15   6 C       39   1 H                                       1.1023648
    16   8 O       40   1 H                                       0.9625491 (min)
    17   6 C       41   1 H                                       1.1000092
    18   8 O       42   1 H                                       0.9649576
    19   6 C       43   1 H                                       1.1049858
    20   8 O       44   1 H                                       0.9665811
    21   6 C       45   1 H                                       1.0955362
    22   8 O       46   1 H                                       0.9652003
    23   6 C       47   1 H                                       1.1041343
Note: The following floating-point exceptions are signalling: IEEE_UNDERFLOW_FLAG IEEE_DENORMAL
normal termination of xtb
    24   8 O       48   1 H                                       0.9678811

 * 4 distinct bonds (by element types)

   Z      Z             #   av. dist./Å        max./Å        min./Å
   1 H    6 C          17     1.0984470     1.1097125     1.0873074
   6 C    6 C          10     1.5353632     1.5398766     1.5281810
   1 H    8 O           7     0.9653740     0.9678811     0.9625491
   6 C    8 O          15     1.4050084     1.4272313     1.3777598


optimized geometry written to: xtbopt.xyz


           -------------------------------------------------
          | TOTAL ENERGY              -84.819332505272 Eh   |
          | GRADIENT NORM               0.000396489551 Eh/α |
          | HOMO-LUMO GAP               9.653872375552 eV   |
           -------------------------------------------------

------------------------------------------------------------------------
 * finished run on 2026/09/22 at 17:04:43.341     
------------------------------------------------------------------------
 total:
 * wall-time:     0 d,  0 h,  1 min, 55.219 sec
 *  cpu-time:     0 d,  0 h,  1 min, 52.883 sec
 * ratio c/w:     0.980 speedup
 SCF:
 * wall-time:     0 d,  0 h,  0 min,  0.256 sec
 *  cpu-time:     0 d,  0 h,  0 min,  0.253 sec
 * ratio c/w:     0.991 speedup
 ANC optimizer:
 * wall-time:     0 d,  0 h,  1 min, 54.934 sec
 *  cpu-time:     0 d,  0 h,  1 min, 52.605 sec
 * ratio c/w:     0.980 speedup

