48
-84.819422909417
C 5.582855 0.915547 0.733066
O 4.919569 -0.193101 0.157705
C 3.647370 0.075698 -0.295497
O 2.819037 0.298562 0.834271
C 1.446647 0.496873 0.578557
C 0.793544 0.758698 1.951416
O 0.132850 2.001241 2.033993
C 0.868210 -0.727899 -0.151153
O -0.467636 -0.525086 -0.583908
C -1.450678 -1.383148 -0.085542
O -1.885239 -1.014789 1.193102
C -2.447957 0.292576 1.200965
C -2.801107 0.674612 2.643746
O -2.846086 2.072709 2.787104
C -3.664218 0.390944 0.273185
O -4.170284 1.703504 0.224698
C -3.244893 -0.010711 -1.147330
O -4.343423 -0.063082 -2.025316
C -2.601182 -1.396833 -1.101682
O -2.075674 -1.783596 -2.343191
C 1.679943 -0.971919 -1.434265
O 1.243402 -2.127187 -2.103384
C 3.171656 -1.122701 -1.126634
O 3.914928 -1.151137 -2.312470
H 5.056038 1.270026 1.622801
H 5.669199 1.734560 0.010015
H 6.573248 0.560259 1.006493
H 3.631913 0.980327 -0.940996
H 1.301603 1.375739 -0.073933
H 1.585452 0.686316 2.705898
H 0.040389 -0.001331 2.160442
H 0.784431 2.704044 1.927494
H 0.937507 -1.605293 0.502523
H -1.056219 -2.403529 0.032293
H -1.697495 1.007249 0.830394
H -2.065355 0.225174 3.319388
H -3.791262 0.298377 2.911985
H -1.946704 2.405696 2.650865
H -4.446677 -0.306736 0.619329
H -4.052817 2.110139 1.097071
H -2.501462 0.714575 -1.512846
H -4.859541 0.738801 -1.877077
H -3.357132 -2.121829 -0.760737
H -2.741158 -1.560839 -3.007465
H 1.546367 -0.090849 -2.085013
H 0.290574 -2.039968 -2.260372
H 3.335114 -2.035910 -0.536675
H 3.542354 -1.854776 -2.859833
