48
 energy: -84.818352556962 gnorm: 0.000248992718 xtb: 6.7.1 (edcfbbe)
C            5.07161407966582        2.86463664506476       -0.81534829890719
O            4.70417873767886        1.52686649274957       -1.09239583424365
C            3.35150993480323        1.28465613320428       -1.00622561937771
O            2.96673838737949        1.35806089487481        0.35514348140971
C            1.60258581351650        1.12060802776431        0.57487537695237
C            1.35576096704263        1.38459859843843        2.07333407236883
O            0.00909835516005        1.55937533965583        2.40850807537903
C            1.19881800527879       -0.30858814464369        0.14758030434096
O           -0.21997474811181       -0.37473479464856        0.27090207612635
C           -0.81876643662346       -1.42776682295841        0.96605226167606
O           -1.71107527536944       -0.88181688339119        1.91028885269269
C           -2.73906766664194       -0.08199476273697        1.33753590110046
C           -3.57033524568144        0.47966704189136        2.50027226509258
O           -4.51396730063493        1.42404837461868        2.05215117761933
C           -3.60603102318642       -0.89736249730410        0.36607669940839
O           -4.53933043168485       -0.09418560898405       -0.30935291092087
C           -2.69341229490532       -1.54523161313337       -0.67927671795601
O           -3.39778232956711       -2.41067547955268       -1.53591153434773
C           -1.62673114208715       -2.36620119837847        0.04572257109753
O           -0.78956963838938       -3.03136622388236       -0.86074227006234
C            1.62949766475417       -0.56388753991910       -1.30522795437828
O            1.60019833795209       -1.92070816900821       -1.66021757155864
C            3.07802659081983       -0.11280351849122       -1.56598084351208
O            3.32164602068495       -0.09358218255764       -2.94448534857702
H            4.80152292501328        3.14093184073653        0.20688837269247
H            4.58819378394286        3.55242020624984       -1.51841807600830
H            6.15073474607548        2.90881857395179       -0.94010976803890
H            2.76990493900785        2.03037861876643       -1.58978560887949
H            0.98926530031434        1.82320122501469       -0.01505439681770
H            1.86102495240532        2.31894968102804        2.32860580018208
H            1.81496125203255        0.57462020278213        2.65565689507110
H           -0.46336875971021        0.72921734453016        2.25378065084940
H            1.68125869741934       -1.04596874480878        0.80181581423759
H           -0.08400765910865       -2.00734810872528        1.53932205212975
H           -2.29019490048597        0.75069136143905        0.77451871745515
H           -2.89128595073801        0.90686362135509        3.24507946814739
H           -4.13944605961477       -0.32691051167230        2.96795934833646
H           -4.05347799706778        2.23668633722971        1.81114861374714
H           -4.12023594351685       -1.69757288229222        0.92604792829024
H           -4.97863832143549        0.46801128841316        0.34903631438852
H           -2.20390294505842       -0.74976104002593       -1.26295546694410
H           -4.19066040671550       -1.94150116686707       -1.82274626660054
H           -2.12891955556661       -3.10120642775953        0.69483954025192
H           -1.36146432501709       -3.38057959682613       -1.55972517681978
H            0.95943888225046        0.02132724701722       -1.95854744996659
H            0.74424071133425       -2.31011279547874       -1.40548665940927
H            3.75682663175052       -0.81254321232346       -1.05723897572549
H            3.12460150624772       -0.98022733473130       -3.27443014174258
