48
cell (90, 70) s_073 rnd63 xtb E -84.859216548
C 5.618560 0.056997 1.067130
O 4.726489 0.631658 0.114243
C 3.386805 0.499890 0.431821
O 3.027808 -0.862798 0.399861
C 1.673136 -1.074697 0.740873
C 1.432690 -2.578235 0.846120
O 2.032448 -3.037322 2.036035
C 0.770326 -0.412011 -0.319055
O -0.604389 -0.705222 -0.151146
C -1.284262 -0.156629 0.946626
O -1.846635 1.093259 0.662427
C -2.733959 1.091453 -0.456470
C -3.272931 2.523331 -0.581848
O -3.882930 2.964418 0.603555
C -3.884136 0.089815 -0.263594
O -4.686958 -0.010301 -1.413030
C -3.344228 -1.290013 0.140686
O -4.384177 -2.165222 0.511554
C -2.398428 -1.145919 1.335211
O -1.821685 -2.366015 1.707060
C 1.080749 1.088903 -0.404808
O 0.356607 1.644356 -1.472465
C 2.587729 1.288806 -0.616583
O 2.842792 2.666413 -0.540531
H 5.420982 -1.009687 1.177989
H 5.507598 0.554727 2.034571
H 6.613852 0.222459 0.666016
H 3.177061 0.907018 1.445503
H 1.484382 -0.629100 1.731056
H 1.880945 -3.060918 -0.029697
H 0.350136 -2.744791 0.862726
H 1.846219 -3.981686 2.137391
H 0.999004 -0.860433 -1.293069
H -0.619518 0.004472 1.801830
H -2.163236 0.831835 -1.358639
H -2.448654 3.186611 -0.864599
H -4.045509 2.547112 -1.351908
H -3.224784 2.921682 1.311964
H -4.547592 0.459717 0.527352
H -4.136270 -0.240672 -2.176550
H -2.768844 -1.717126 -0.696424
H -5.107641 -2.074242 -0.127231
H -2.957843 -0.712400 2.178868
H -2.537239 -3.018493 1.784332
H 0.794286 1.583481 0.537374
H 0.714225 2.530280 -1.642185
H 2.864257 0.890672 -1.604118
H 3.790742 2.824709 -0.666015
