48
 energy: -84.742018820018 gnorm: 0.000770437078 xtb: 6.7.1 (edcfbbe)
C            5.54434219094471       -1.07365416024600        0.46204628344424
O            4.77029539657246        0.11914605703819        0.53992086038822
C            3.41932041982690       -0.08403630588333        0.77823671514912
O            2.82027356118409       -0.61692803857894       -0.36888053558283
C            1.39233950898949       -0.89067578360354       -0.24652682257119
C            0.89063331701648       -1.62559675919409       -1.46120553059422
O            1.50714132776804       -0.93765184502019       -2.69769568790442
C            0.64070133719458        0.42839940178101        0.04131463287604
O           -0.70006217963609        0.04544218924728        0.28531364979901
C           -1.65681957280099        1.07143710774807        0.35405112267680
O           -2.37176614914456        1.18549702995994       -0.85031544860681
C           -3.06496987582233       -0.00804623679551       -1.20736121920871
C           -3.79385149244579        0.25881723132447       -2.53117657736227
O           -4.19181794738696       -0.92079657933388       -3.17479526130876
C           -4.05299160936867       -0.40014515897909       -0.09873921190225
O           -4.69627822432482       -1.59789892739288       -0.45418646901385
C           -3.31748031208982       -0.54243547730251        1.24589264260258
O           -4.21230875442717       -0.94633634617508        2.25196603151239
C           -2.60104977361405        0.77736015898734        1.53739423109220
O           -1.89981106529043        0.68983002376912        2.74861651236505
C            1.26246643982598        1.08265930719363        1.29009158485330
O            0.66938762224064        2.33107913016171        1.57599151165018
C            2.77780785893466        1.26638224249003        1.11670574968283
O            3.32587325552770        1.88356528645155        2.24982368063750
H            5.17223281329687       -1.72723088282655       -0.32848338854639
H            5.51867440063879       -1.60678588384083        1.41700190426750
H            6.55559908239949       -0.74699868520963        0.23942646964484
H            3.27158813190281       -0.79010426425971        1.62668967452772
H            1.21915898430213       -1.54236794195535        0.62120420310671
H            1.41086833367526       -2.60059167846066       -1.47731163453643
H            2.37928906414952       -0.56194818815708       -2.45342704590896
H            0.89569777514208       -0.23143583827129       -2.98086045596458
H            0.69100068235243        1.12993473902551       -0.80072918559482
H           -1.18281152490918        2.04989993689622        0.48876790815363
H           -2.34355587349343       -0.82613208252159       -1.34272834498237
H           -4.65759830001822        0.91092682661834       -2.33824929993501
H           -3.11715047031444        0.77757386181295       -3.21174175720496
H           -4.64709450628156       -1.48256597653312       -2.52668728500372
H           -4.80420008563053        0.40520788660393       -0.00014361512144
H           -5.00202081142229       -2.03271863047338        0.35831249459855
H           -2.56755885683382       -1.33661728737149        1.17180808575438
H           -4.72857018507430       -0.18814686274692        2.56177273859142
H           -3.34569137429116        1.59103542842437        1.58166722691919
H           -1.33559310295323        1.47282830527979        2.83970577862282
H            1.07846046795810        0.39756266492847        2.13667288297746
H            1.32496025300775        2.86390118326005        2.05919735750641
H            2.97519118251581        1.95272409046828        0.28611472564418
H            3.37429859168026        1.25807374237969        2.98770024683944
