48
 energy: -84.856285540948 gnorm: 0.000213176110 xtb: 6.7.1 (edcfbbe)
C            5.79176739929342       -0.73413770054461        0.23746174645854
O            4.90020983964943        0.35142723820173        0.47504473396945
C            3.60880836922170       -0.01748132209293        0.79135455118967
O            2.99019172453794       -0.53607004453097       -0.37003332006705
C            1.61620952834786       -0.83480216949835       -0.22506790211606
C            1.15545744754037       -1.46401778434220       -1.54813377944745
O            1.57232211798140       -2.79375882177847       -1.68904849972765
C            0.81304626956498        0.43326971770857        0.11114653486712
O           -0.54205619034580        0.04545723789248        0.25591378544864
C           -1.49206318603920        1.08685654006953        0.33334733463735
O           -2.13981512627973        1.27140912180385       -0.89337908418915
C           -2.88886878367362        0.13305684254660       -1.32777794091901
C           -3.62168851106668        0.53978920631138       -2.61243727432818
O           -2.75269233992723        0.73771355935547       -3.69476210957968
C           -3.89178920715726       -0.33981101159535       -0.26106998783107
O           -4.56032696698267       -1.51085651354889       -0.65108333943458
C           -3.19760989229670       -0.53238637033013        1.09826202473277
O           -4.12519291671506       -0.82815636078083        2.11445951989637
C           -2.47841802644164        0.76676411526935        1.45996699214266
O           -1.74929850471149        0.68816027577529        2.65535981223269
C            1.37797349349744        0.94517953837511        1.45750004304046
O            0.77796689556468        2.12709851884871        1.93783376423520
C            2.88137575871445        1.22523654049980        1.31734507229508
O            3.44331942747092        1.54463402525068        2.55989726809610
H            5.50167693836598       -1.27856905542669       -0.66217247886946
H            5.80334264448451       -1.41101806524782        1.09609427813575
H            6.76871064322350       -0.27895703173660        0.10431732587234
H            3.59967547509549       -0.79223762033944        1.58698850101522
H            1.46807792175550       -1.56120049301776        0.58799153482704
H            1.52400509695610       -0.84253200047572       -2.37188269568209
H            0.06559495388862       -1.48290886380736       -1.56317040670103
H            2.53866684375735       -2.81931918218349       -1.72211957325604
H            0.92729851873857        1.18978622290622       -0.67273638299867
H           -1.00254568905886        2.04742933318258        0.52289043542411
H           -2.18667462567837       -0.68467388172347       -1.54898900777545
H           -4.20325442451975        1.44582721195924       -2.40485462236384
H           -4.29996269087485       -0.26456269918351       -2.90271970867928
H           -2.16645649421851        1.47890068617837       -3.48857152743504
H           -4.67632435993540        0.41708364026796       -0.14266361294150
H           -3.91695108474547       -2.20531891888470       -0.85899294293393
H           -2.44593040255981       -1.33442615013027        1.02239342227098
H           -4.77173040785417       -1.46366135078235        1.77066166408527
H           -3.22058451969937        1.57755179741986        1.51695358182645
H           -2.32646177998901        0.30581186555019        3.33522346031851
H            1.24298788936830        0.14050061832620        2.19285431889812
H           -0.00502453066197        1.89272539387964        2.46335053152776
H            3.03639673185976        2.04093654661075        0.59678306493011
H            2.96168874375425        2.30788063904335        2.91863691599090
