48
 energy: -84.860238593213 gnorm: 0.000896250623 xtb: 6.7.1 (edcfbbe)
C            5.60562049387341       -1.19057576457039        0.66340430948458
O            4.89141526266440        0.03188294782347        0.82588324673940
C            3.51605055422313       -0.09755125084392        0.89043270627577
O            3.01253100026458       -0.51603373103131       -0.35978654032843
C            1.61220550643699       -0.70050221579143       -0.35094450175901
C            1.21292984424912       -1.18165046793841       -1.75292734703204
O            1.59754116576697       -2.50522351415369       -2.00161834743979
C            0.83391673114212        0.57319416579867        0.02844589713395
O           -0.49118378636526        0.11709301589774        0.25049379428401
C           -1.49471898065363        1.09335585692758        0.40590912117772
O           -2.22039324335097        1.27118825875305       -0.77958023202411
C           -2.88524535013198        0.09604347066024       -1.24346338773766
C           -3.65169941890013        0.48974128210457       -2.51218087387821
O           -2.79983741150424        0.82857057393100       -3.57340870284749
C           -3.83850892628640       -0.47142194327257       -0.18071451075990
O           -4.44627906110489       -1.66746682817064       -0.59535270793772
C           -3.09479112208146       -0.66566297202153        1.14890849342301
O           -3.97554081268898       -1.04323290794044        2.18081315397581
C           -2.42398369440517        0.65120907792649        1.54830385842385
O           -1.66689727315235        0.53025471305867        2.71974953106670
C            1.41601967853484        1.24468858952214        1.28374403628503
O            0.91876209747290        2.55952943046862        1.36343771469642
C            2.94876919532480        1.28215261870830        1.24078677721031
O            3.39376686731279        1.72250037159139        2.49587670909878
H            5.38389308026339       -1.63782234940393       -0.30553820351997
H            5.34740624187370       -1.89004834003216        1.46299769132299
H            6.65577510656333       -0.91984208766660        0.72151903719666
H            3.22108345907990       -0.83573798900530        1.66647831511101
H            1.34571074363105       -1.47260698626150        0.38820031901602
H            1.64959562209411       -0.49713478753488       -2.48967178691829
H            0.12604415688086       -1.15691944247528       -1.83399945248509
H            2.56304282927562       -2.55977102060899       -1.98374467812606
H            0.85782803619980        1.30072183318730       -0.79385636236560
H           -1.06007608362957        2.06931159860273        0.63726974805080
H           -2.12847437817810       -0.66343256355115       -1.49111112716926
H           -4.32077810432083        1.32289003202933       -2.26596403714151
H           -4.24516067983879       -0.36211768003539       -2.84839894000059
H           -2.28514216793313        1.60561603242577       -3.31467120606623
H           -4.66130267021433        0.23475542266387       -0.01937435456470
H           -3.76660313006994       -2.31867191805808       -0.82559949896833
H           -2.30708141101924       -1.42643840961307        1.02472345487004
H           -4.60088793418231       -1.69575189077842        1.83072309809479
H           -3.20274694702972        1.42049954335295        1.66982444826187
H           -2.22691504366316        0.10910689944576        3.39150574559962
H            1.09584462114636        0.66674150429336        2.16374103136540
H            1.31328696047601        2.98548896823594        2.14077510901007
H            3.26356784668518        1.97572378826012        0.44597837548219
H            4.36275852955072        1.72150706470717        2.50457807805084
