48
 energy: -84.847086864842 gnorm: 0.000205403272 xtb: 6.7.1 (edcfbbe)
C            5.74075385103919       -0.68114225330628        0.12922726148612
O            4.87553910754777        0.41293124014032        0.42603700939319
C            3.58661831029390        0.04070774212655        0.75030311437793
O            2.95549682700382       -0.43912725645699       -0.41872181909198
C            1.60136281842638       -0.79099730467346       -0.24353931068316
C            1.13263437504540       -1.43951966132762       -1.54719805733056
O            1.61990133622800       -2.75772850602391       -1.58946283240592
C            0.77635673758138        0.45642976471507        0.11957637525129
O           -0.57252784181375        0.05329556778202        0.27737338322929
C           -1.52540583114698        1.09059002914204        0.37818211697983
O           -2.18617113778451        1.28296268364769       -0.84135469900721
C           -2.93612541393759        0.14354641296295       -1.26350731757308
C           -3.59589545864262        0.49908027633083       -2.60276655176541
O           -4.85608156859349        1.09223921243298       -2.38094621053765
C           -3.97549936358088       -0.27110951936265       -0.19975003736008
O           -4.64858945592083       -1.44393607672512       -0.57893190320551
C           -3.26669150992665       -0.51886169912581        1.13669716557773
O           -4.13422778662528       -0.89739664326150        2.17427096972851
C           -2.50268659003677        0.75893402731212        1.50894825693414
O           -1.77286622410044        0.63113089651126        2.70067833771689
C            1.35623000079699        0.95824374456330        1.46472527802085
O            0.74460717953862        2.12231337874395        1.97426285646135
C            2.85467172805129        1.26478404377746        1.31322394470564
O            3.42480949372733        1.56922523222691        2.55550939366552
H            5.34949626993297       -1.25951921176486       -0.70933798519663
H            5.84699181475206       -1.32567769784840        1.00640535949925
H            6.69498803302587       -0.23133229814438       -0.12747425162549
H            3.58523283939127       -0.75720151220224        1.52293014232240
H            1.50102885317517       -1.52962425534285        0.56512227989842
H            1.52313176779501       -0.84383199903869       -2.37944101616735
H            0.03627529211579       -1.42764304528033       -1.55746500343188
H            1.41695442317056       -3.14780990363170       -2.45220390237952
H            0.86900241128218        1.22315577475322       -0.65794761862310
H           -1.03492222372033        2.05058111553851        0.56941948585190
H           -2.24537386722790       -0.69782774115280       -1.41169384086547
H           -2.91758688837258        1.18596570390530       -3.11766727756269
H           -3.70835062008700       -0.41661517683840       -3.19630264132634
H           -5.15817439992047        1.51633333522255       -3.19579751881879
H           -4.68263864597543        0.56188047917681       -0.07286827788337
H           -5.27823232531109       -1.22892404383762       -1.28213334367263
H           -2.55360986120392       -1.34284582074761        1.02626317462777
H           -4.95865422678679       -0.39232359468254        2.12018773506216
H           -3.21721896137136        1.59449763977589        1.59495318365504
H           -2.27954660340137        0.06313575519092        3.30476425931084
H            1.24463754492362        0.13907556068706        2.18788799506971
H           -0.02634543087535        1.86666477825007        2.50693580654236
H            2.98891077403001        2.09639582820985        0.60679905036301
H            2.93292246003308        2.31578102479676        2.93546549634617
