48
 energy: -84.850166192734 gnorm: 0.000719986610 xtb: 6.7.1 (edcfbbe)
C            5.57883347975275       -1.09331334405035        0.45854936059575
O            4.86107136924222        0.11827259061554        0.68232626397377
C            3.49963838357171       -0.04248697101317        0.83794176475141
O            2.93508994639213       -0.45200082394283       -0.39193111461007
C            1.54271138186209       -0.67631021832947       -0.33316527657120
C            1.12043710222601       -1.14705676926528       -1.73302070650809
O            1.37517925592495       -0.18372504623282       -2.71714881150337
C            0.75614529773451        0.58037562919454        0.08356310775993
O           -0.57140174204348        0.12254686174574        0.29430773096221
C           -1.56466381698169        1.10961056517186        0.47103397621578
O           -2.28696244663302        1.32357412519879       -0.70861687570879
C           -2.96364887339564        0.17251446683090       -1.19795994135255
C           -3.76192954995487        0.60869728981115       -2.42783398893927
O           -4.76795589122155        1.51107128285813       -2.03142706129897
C           -3.89492129009151       -0.47395180733883       -0.14992229261387
O           -4.43023060101336       -1.67229688845584       -0.64523042795661
C           -3.15470329170780       -0.67039241041929        1.17798440592662
O           -4.06584305139500       -1.13045634373741        2.14367650097153
C           -2.51393823262652        0.65694798859253        1.59557316259491
O           -1.84875694133442        0.45806288365605        2.81620138681960
C            1.36062972821395        1.16225295091543        1.37245930703827
O            0.80044825421124        2.42021563117492        1.66599557598015
C            2.88829533032777        1.29988258475566        1.25546159945964
O            3.41861298815958        1.81635088640840        2.44406020300288
H            5.24572884339483       -1.57244399502495       -0.46291906198814
H            5.44171566621464       -1.77705070233511        1.30124190382995
H            6.62066081177753       -0.79879564212219        0.37773255091209
H            3.27489325350565       -0.81818119645501        1.60408771769535
H            1.31581680210722       -1.46506378995754        0.39996702293920
H            1.64312123166078       -2.08391157160259       -1.95973459317664
H            0.04383582557946       -1.32009068611599       -1.73414291529518
H            2.32573910556579        0.00408507325799       -2.71944115344783
H            0.78050692227550        1.33186567916016       -0.71562230878423
H           -1.11446459726158        2.07744522841677        0.71055337567045
H           -2.21636116977401       -0.57367870245494       -1.50859467269308
H           -3.06782254076650        1.08258181389021       -3.13125346657935
H           -4.20107654468025       -0.28984332130774       -2.87775570606136
H           -5.25352783761571        1.80427528346576       -2.81514627678449
H           -4.75187061434896        0.18699709212716        0.01746371447341
H           -3.76695639834957       -2.37629468743157       -0.59097650478955
H           -2.34310361034490       -1.40395686732421        1.04036423028251
H           -3.62601767300945       -1.10411371088657        3.00778254977069
H           -3.30483194970133        1.41422166806191        1.69075991628867
H           -1.55374297183077        1.31140869308219        3.16454933331379
H            1.12102805248870        0.45906491376431        2.18941319883065
H            1.44213993529167        2.91325271766627        2.20691960421589
H            3.13096571117170        2.03278337964631        0.47863837597194
H            3.41838498804992        1.14247328027575        3.14047330145999
