48
 energy: -84.741976537348 gnorm: 0.000473697823 xtb: 6.7.1 (edcfbbe)
C            5.63566028463514       -1.07381586098146        0.56822457290929
O            4.89747618717791        0.13971602298912        0.68257328240880
C            3.53361748873469       -0.01852346296872        0.81488978719196
O            2.99508770486775       -0.53599078579500       -0.38578617658200
C            1.60452013000572       -0.77278406351413       -0.31949204132125
C            1.17951380011024       -1.35913051075654       -1.67346202818311
O            1.60015249993852       -2.68462894561303       -1.84328393108867
C            0.79460905101563        0.49767694462377       -0.00341296626692
O           -0.52282380997911        0.02956704189043        0.24371869820860
C           -1.53923105463898        1.00896242085509        0.34771004421888
O           -2.26038831793975        1.12670105583560       -0.83833645783136
C           -2.93747719927941       -0.06264038822096       -1.27442280560644
C           -3.50243902332597        0.23275761738641       -2.65121026215740
O           -4.35791248812719        1.56831044030675       -2.41570677655781
C           -3.93969271091666       -0.48623396746542       -0.17466106792940
O           -4.64685804541984       -1.66039564302294       -0.50780916538761
C           -3.20328017161929       -0.67732552972274        1.15905798888525
O           -4.09887171455152       -1.01859483417322        2.19309239727781
C           -2.45655309639906        0.60594641180210        1.52972818053181
O           -1.72056407369762        0.48669424388321        2.71653584615714
C            1.38416469523883        1.24429118441478        1.20418165932544
O            0.83207012742762        2.53695816920005        1.27112878871065
C            2.91647080214707        1.35563162610633        1.10001974759053
O            3.43709126504405        1.97565407107629        2.24257618212105
H            5.39055837361701       -1.58574363851366       -0.36256025982028
H            5.42612835119120       -1.72965779702033        1.41804726534289
H            6.67952461653754       -0.77482325111081        0.57075763659953
H            3.29351781686582       -0.72498662206878        1.64212763263273
H            1.39272260050260       -1.50868511849796        0.47277831828490
H            1.57066553782859       -0.71246911204391       -2.46629867109985
H            0.09012274135549       -1.37120838486698       -1.72267286909070
H            2.56638597409081       -2.70319499730406       -1.88883750744707
H            0.79779285355496        1.17539358759595       -0.86741980490082
H           -1.10887500930478        1.99591808775180        0.53520521985282
H           -2.20606714780579       -0.87884351898120       -1.39140601440547
H           -4.51532248847021        1.90997292596817       -3.31963334969771
H           -4.30489618354239       -0.51326272450973       -2.82059346037121
H           -3.69121776912025        2.13915128371405       -1.98016033955194
H           -4.70490437272650        0.28902909961902       -0.05082884915298
H           -4.02483641896960       -2.32987604405408       -0.82801301117100
H           -2.45652162489675       -1.48369727742154        1.03529790819458
H           -4.78993693929940       -1.58539989238965        1.81346909493815
H           -3.17949716196030        1.40780837705741        1.70790985301760
H           -1.24505488014370       -0.35606620694357        2.70142108710179
H            1.12171950903110        0.68320178380089        2.11686689955893
H            1.36305298082556        3.06497127551893        1.89110786530131
H            3.17263594558833        2.01237326664007        0.26172391477202
H            3.43969936844820        1.36414365174298        2.99385692075491
