48
 energy: -84.854625154639 gnorm: 0.000600915493 xtb: 6.7.1 (edcfbbe)
C            5.62713663074435       -1.06400262584637        0.44418332428809
O            4.86481307206937        0.13158538172318        0.58684468120706
C            3.50646824840806       -0.05620809319300        0.76154122314657
O            2.92888026069812       -0.53670088874175       -0.43441323272575
C            1.53522387198020       -0.74847900665426       -0.33204971125513
C            1.06358992919521       -1.28855121017692       -1.68961517423941
O            1.49825830108595       -2.59595860808329       -1.93739262904321
C            0.75839276158613        0.52968711709383        0.03842728767597
O           -0.56658176238559        0.08884126611638        0.28360059134175
C           -1.55723364825713        1.08102948562582        0.42964257611204
O           -2.28947157344083        1.23777202337193       -0.75515833212233
C           -2.98108988331788        0.06504860359495       -1.18055611537642
C           -3.76452247705910        0.45877063393128       -2.44148892638963
O           -4.59512014167473        1.56763974350455       -2.21875406527623
C           -3.93095035584677       -0.46367054176368       -0.08763370439991
O           -4.56627267005495       -1.64603910956894       -0.49566181844865
C           -3.17005746374937       -0.64448606142112        1.23830188068236
O           -3.99746963931793       -1.13233629695839        2.25809889962699
C           -2.48767433882106        0.68462534219128        1.59786150459808
O           -1.77825622957546        0.53013481501712        2.79626356116544
C            1.38460322523794        1.18157671743167        1.28317493268559
O            0.82558896733698        2.45521980143064        1.49929199531412
C            2.90143937184809        1.30758447036638        1.11179982591301
O            3.41645641655301        1.81999153377650        2.31117222022311
H            5.34969991839041       -1.58956840871577       -0.46923248011538
H            5.47451247253772       -1.71628748817682        1.30817604397672
H            6.66258013933778       -0.74043851206079        0.39247774711196
H            3.30550114935928       -0.78018821944948        1.57933308164958
H            1.32726123855622       -1.49553940182551        0.44944223475672
H            1.40812695187718       -0.60198076623833       -2.47197623046766
H           -0.02623869440749       -1.32197310326275       -1.68790581462390
H            2.46453239180188       -2.60168598042395       -1.98573542993150
H            0.77555265353395        1.24933404856255       -0.79103872448858
H           -1.10401347116310        2.05908553066463        0.61765322935645
H           -2.25369398896611       -0.71999018228127       -1.42889512337614
H           -3.05615609048433        0.66338742220062       -3.25300740558054
H           -4.41791991974357       -0.36881802782796       -2.72247809358790
H           -4.03828822194429        2.30265016986519       -1.92209346045117
H           -4.73911334878016        0.26660983397632        0.04619508021955
H           -3.94983095770956       -2.39017543691497       -0.43527324836683
H           -2.38499356639078       -1.39996436415110        1.12076314226014
H           -4.72873374147195       -0.51739126068315        2.41612679933350
H           -3.25693029052870        1.46608744357617        1.69132476772397
H           -1.49649555763778        1.39854552289402        3.11890058861620
H            1.17761380028882        0.53316213630315        2.14950355356168
H            1.39325880733936        2.92007983979301        2.13648352670680
H            3.11483578855634        1.98569725701189        0.27132996291774
H            4.38184568561477        1.87221849822023        2.24506830138489
