48
 energy: -84.738644358085 gnorm: 0.000772524157 xtb: 6.7.1 (edcfbbe)
C            5.79637971120152       -0.62090014698572       -0.05498960972491
O            4.90640394590894        0.45298202454597        0.24318421622039
C            3.65080597260679        0.04602820927485        0.65494627032255
O            2.99629321896510       -0.55921824245140       -0.43248984844331
C            1.66576585026610       -0.96004440824537       -0.16411345367414
C            1.24568852181250       -1.81447234220489       -1.35461896437118
O           -0.17844157961272       -2.34718940434095       -1.02490232783971
C            0.82846508417047        0.33011560555713        0.11184234127630
O           -0.53783771655716       -0.03940020036033        0.30489538672180
C           -1.46273386093349        1.02891477785338        0.32770916218308
O           -2.12649986500679        1.15695044322251       -0.89735830761543
C           -2.97263867866440        0.06115032787813       -1.24231815206665
C           -3.68512764396490        0.49189346363121       -2.52945545509573
O           -4.48300022723203       -0.57107251150889       -2.99132131565534
C           -3.98156975194287       -0.29426808569728       -0.12985022261929
O           -4.62722257165291       -1.50985408536126       -0.39784144342998
C           -3.27525077326100       -0.43022875023500        1.22648045227803
O           -4.15305987660104       -0.66711075088264        2.29692197229235
C           -2.44566002578659        0.83386188784859        1.48413554519838
O           -1.71372751303026        0.76250805418778        2.67910802654198
C            1.41715171814861        0.95038618065474        1.39511313210207
O            0.79264936851582        2.13871208040328        1.84131116162503
C            2.89844612112189        1.28225462049241        1.16502955933522
O            3.50835027661507        1.68891092894770        2.35915210499385
H            5.38261260055434       -1.24576042066895       -0.84807489396047
H            5.97119414979505       -1.22257517682142        0.84154175426715
H            6.71772832113132       -0.14685599249845       -0.37953470094587
H            3.72868990733178       -0.68324726833567        1.49184793485091
H            1.65290503022117       -1.56089142793409        0.76363583895306
H            1.04229383750017       -1.11926049312930       -2.19321161940211
H           -0.60362811511986       -1.70872537358062       -0.40716463592859
H           -0.05594021199179       -3.21832833158285       -0.59446185302818
H            0.91933439607820        1.02118221166911       -0.73399297819799
H           -0.93420262991098        1.98057316532846        0.43941757815850
H           -2.37156604648846       -0.83337548775106       -1.45627792875588
H           -4.29294228161010        1.37956207845528       -2.31120876732215
H           -2.91505518382719        0.76697874749577       -3.25749598132909
H           -4.85107228165576       -0.35033794839739       -3.85841367338129
H           -4.71832289367359        0.52632317144088       -0.05483619324878
H           -4.90660068700424       -1.51701167671246       -1.33056512050125
H           -2.60804625469428       -1.29740051157333        1.20062743382950
H           -4.98461949368124       -0.19032150196593        2.16614098399446
H           -3.11462633604026        1.70964064906657        1.50197370648190
H           -2.26898208427595        0.32372697306663        3.34605031529875
H            1.35485442998560        0.19143051380160        2.18755288043894
H            0.03827512258659        1.90435015454515        2.40722991795198
H            2.97939435041104        2.06530889855816        0.39714352054936
H            3.02149568750169        2.45719429931902        2.69875434297263
