48
 energy: -84.734361576538 gnorm: 0.000487070874 xtb: 6.7.1 (edcfbbe)
C            5.69325851340655       -0.72841916198870        0.05117087423119
O            4.88713754147150        0.35717725577918        0.50440426625572
C            3.56988899787568        0.01226072582289        0.75055584160657
O            2.94402438534968       -0.29785994800878       -0.46693418458261
C            1.58782908840650       -0.68012709316285       -0.30497224390168
C            1.11637623776330       -1.32320404790494       -1.59361078225775
O            0.02715052639558       -2.32306799856284       -1.13416790616393
C            0.78592022224041        0.56338403481645        0.17594018034696
O           -0.56510912599800        0.12733936670252        0.31870116468731
C           -1.53811176041881        1.12345123156274        0.53494584610117
O           -2.22458065773240        1.44103395342180       -0.64603402684653
C           -2.92870792870705        0.34831706520547       -1.22334303507237
C           -3.60653043328445        0.84905737628141       -2.51204993814135
O           -4.73487776841479        1.65479534965530       -2.29811223326604
C           -3.92865299093022       -0.26644354316494       -0.23604597242798
O           -4.47700220294037       -1.40903376770363       -0.83960389447651
C           -3.23998177854713       -0.60917349950186        1.09166192061225
O           -4.23568853525807       -1.06097509700965        1.97502064549048
C           -2.51863859324997        0.63292284699870        1.61769019626735
O           -1.86999351135456        0.28785637514342        2.81312314627064
C            1.37126384245984        1.06126684934631        1.50545316905092
O            0.80955361099400        2.27814683055222        1.96319213868650
C            2.90014307815238        1.20942522381690        1.43881522940447
O            3.44419792378541        1.31555963545624        2.72734797936745
H            5.28255366500709       -1.14431465849346       -0.87015513052624
H            5.74349830911034       -1.50444525515949        0.82058297282475
H            6.67683514258401       -0.30276078563754       -0.12302169711136
H            3.51299211959214       -0.86522948647950        1.43199356096748
H            1.53126233318748       -1.43485932173699        0.49990830884791
H            0.56547559160053       -0.55593630589910       -2.17606791904984
H           -0.21377400821053       -2.84217394030245       -1.92920603541329
H           -0.75623794721232       -1.87405457369796       -0.75183199412120
H            0.84823195013415        1.34985846699890       -0.59013662694463
H           -1.07691305321809        2.06167517422225        0.85294378551083
H           -2.20769438460172       -0.42796589870762       -1.51263057316945
H           -2.88307407209031        1.47376093968538       -3.04037093090610
H           -3.85592233652933       -0.02345502176256       -3.12307463987499
H           -5.49778721343127        1.09325205680496       -2.10143109300192
H           -4.71089755990955        0.47454770026347       -0.00957376345473
H           -5.01949868462971       -1.86998918547004       -0.18098155729977
H           -2.48766357138293       -1.39630060202704        0.93573497494421
H           -3.84165051430290       -1.17541254644307        2.85211163691106
H           -3.25842713738928        1.43068821331360        1.78377257984005
H           -1.41059888876455        1.06046018789636        3.17132537287509
H            1.12012605230180        0.32295025771168        2.27656043313762
H            1.12048525551463        3.00786034611608        1.40561567330875
H            3.15538332206382        2.09547652457989        0.83413826062030
H            2.98067997111179        2.01928378184058        3.21049215230199
