48
 energy: -84.858332964344 gnorm: 0.000656334970 xtb: 6.7.1 (edcfbbe)
C            5.56378293564353       -0.96797980515473        0.48562863706031
O            4.81958232132630        0.22265989409077        0.73635627584452
C            3.45517112435765        0.02929184897287        0.85999910287450
O            2.93024272340028       -0.42476115758492       -0.36643791918246
C            1.54792455509725       -0.68589082892437       -0.30842317082838
C            1.13152373646644       -1.24316593964319       -1.67748349683709
O            1.59978017661188       -2.54000337586247       -1.91845359647005
C            0.72406961793958        0.56686787358792        0.04753490287402
O           -0.58727709284315        0.07738504159135        0.28480339226047
C           -1.61032097374295        1.03722288836524        0.42003238129062
O           -2.33668259486469        1.16664969689087       -0.77053256872026
C           -2.99620168498299       -0.02350759095655       -1.19871482924349
C           -3.76327842360900        0.34627697672443       -2.47736067905811
O           -4.63109978383447        1.42918527166297       -2.27312344716721
C           -3.94667320268627       -0.56337165453453       -0.11832880364955
O           -4.53448707834251       -1.78284304530552       -0.49487429658412
C           -3.20598961296804       -0.70829125721799        1.21828054747367
O           -4.08610824888384       -1.05384367344032        2.26250584025332
C           -2.53166212466197        0.61794957301048        1.57725109638495
O           -1.76533564078711        0.52564883176932        2.74582493286665
C            1.29829195944370        1.27597775537864        1.28673553134077
O            0.74865362582304        2.56983457398427        1.36498206164580
C            2.82876816820039        1.38067567161348        1.22120004991625
O            3.26946505326554        1.84162894999098        2.47077579367602
H            5.23542301761912       -1.43268087930888       -0.44485720595012
H            5.44127353267204       -1.67036164396796        1.31483399573059
H            6.59885518270819       -0.64942362342469        0.40786218379679
H            3.22980973815621       -0.71567924544549        1.65396722472195
H            1.34769694730233       -1.43197597300828        0.47875127590649
H            1.57543946683200       -0.61565689642255       -2.45224631987535
H            0.03906789951458       -1.19392111472188       -1.74858611350266
H            1.21003938690582       -3.15512121081984       -1.28008827538655
H            0.72077350786787        1.27717376842906       -0.79006272627607
H           -1.19247229031984        2.02680290666269        0.62108123358679
H           -2.24376562936672       -0.79183545832443       -1.42893204368427
H           -3.04142758262977        0.57269145196479       -3.27116293394993
H           -4.38804779473408       -0.49676220976618       -2.77726748660920
H           -4.10518293388177        2.17981375315551       -1.96051539032787
H           -4.77901609428393        0.13909502083336        0.00496087730385
H           -3.84425177069895       -2.43561131513172       -0.68658294327173
H           -2.41867592567840       -1.47408835446185        1.12131073524305
H           -4.73028974039101       -1.69540587229348        1.92515901999940
H           -3.31044083022940        1.38879689816108        1.68642789481386
H           -2.32407292433569        0.13235792415410        3.43548828896821
H            1.01709844154668        0.69399669334329        2.17749851026825
H            1.13957836637167        3.01850649342292        2.13144283581938
H            3.09894655147273        2.08775975403423        0.42223592319058
H            4.23612494701681        1.90195062810613        2.46138372896096
