48
 energy: -84.610066690091 gnorm: 0.000901577733 xtb: 6.7.1 (edcfbbe)
C            5.76153769250390       -0.88522429650319        0.23321533951913
O            4.91690238370941        0.25558140401975        0.37296432349773
C            3.61499664013003       -0.04187996939511        0.73036034364331
O            2.94643250950143       -0.51481870859250       -0.41351339538838
C            1.56786539392051       -0.80644445944624       -0.21904111475035
C            1.08271248117604       -1.49702716507994       -1.47215151756994
O            1.47213263762878       -0.52213113124471       -2.63321655841479
C            0.82852600864568        0.51236894921764        0.15674159544754
O           -0.52975342973119        0.15595521222589        0.33123863907659
C           -1.46333551910037        1.19857165572492        0.44424645588083
O           -2.11711115348621        1.38270121673274       -0.78008945238013
C           -2.75634553261758        0.18165246268505       -1.25929636058085
C           -3.22848071262204        0.23364427549103       -2.61351940563756
O           -5.68869613094410       -1.17545954752684       -2.82654024803816
C           -3.79592746203060       -0.33921839089882       -0.21600261533969
O           -4.30812852624997       -1.59155461989710       -0.53458092993281
C           -3.13659045025830       -0.46879762054844        1.16727497147012
O           -4.09355509972577       -0.77258215600614        2.15214527290339
C           -2.45873198031903        0.84532409324214        1.55101458942360
O           -1.74987954239448        0.77162455868655        2.75919404625961
C            1.45266733954479        1.00123257972365        1.47762302337997
O            0.90962040245481        2.20673889240959        1.98195180671639
C            2.95857539667513        1.23038067903724        1.28241351649040
O            3.58130504918625        1.53091679072896        2.50086816370459
H            5.35151168960528       -1.58075770918438       -0.50070940945337
H            5.87500475822336       -1.38955506103162        1.19680286608348
H            6.71784216198679       -0.49519448198333       -0.10190688419624
H            3.58527182138969       -0.81603720141348        1.52411116014755
H            1.43213007996299       -1.50201704967198        0.62138742214686
H            2.40029795173322       -0.29751937124008       -2.39973733762386
H           -0.01952162513831       -1.47735792701987       -1.47273781048582
H            1.48005201869477       -1.07742493184168       -3.44366385048224
H            0.93294697824403        1.27251423295117       -0.62768884599884
H           -0.97733209307397        2.15741965354562        0.65073084171246
H           -1.97773129902542       -0.62080190899624       -1.32300434203285
H           -2.86180453868391        1.14752149076480       -3.10151106734725
H           -4.89256833049371       -0.67770907588335       -3.11671659362195
H           -5.79154684014790       -1.91184108951236       -3.43993991311085
H           -4.59290543326180        0.41886919642923       -0.15011198133033
H           -4.88981678135130       -1.52565228056584       -1.33581970984688
H           -2.37249005266992       -1.26001175534907        1.11795264337628
H           -4.61365685779568       -1.52937548098075        1.84044643745939
H           -3.22250505842694        1.63730608476523        1.60077082240203
H           -2.32834652677488        0.35968826992380        3.42063041470485
H            1.31649294348885        0.20160177359964        2.21882162890316
H            0.13824200967546        2.00038607728750        2.53186770060208
H            3.11291388929741        2.04290665034913        0.55717800960375
H            3.13393578706326        2.30246621680223        2.88394282263366
