48
 energy: -84.742606180949 gnorm: 0.000467817658 xtb: 6.7.1 (edcfbbe)
C            5.53121208950243       -1.06899647889518        0.49408327473860
O            4.77207528075465        0.13392727009132        0.56438544717423
C            3.41528890487584       -0.05184594614519        0.77993148766694
O            2.82660113900921       -0.57282660297926       -0.37816523475115
C            1.40630867005792       -0.86334013442256       -0.25579489011103
C            0.90351662073851       -1.56675598068354       -1.49126726114882
O            1.50534946853284       -0.83525175436825       -2.70750537874034
C            0.62912230861064        0.43121438031492        0.07281238758914
O           -0.69210756207612       -0.00951783338273        0.34883423474601
C           -1.69249611730676        0.98023133224622        0.46979962513817
O           -2.44049986344960        1.10648689286186       -0.70732097484503
C           -3.13169400848718       -0.07804020708830       -1.10111588321454
C           -3.80468029685706        0.19802958243563       -2.46465175938463
O           -5.18465690998735        0.44391418837774       -2.39936751195929
C           -4.14415395459784       -0.45890856982872       -0.01500348458170
O           -4.84694449927694       -1.60649968683932       -0.42170862116617
C           -3.38688205574209       -0.68967458695563        1.29349130797550
O           -4.32651042937152       -1.01669123284077        2.29294123262906
C           -2.59060892990399        0.56987787724961        1.65857175493021
O           -1.83592418662777        0.35522747567945        2.82356903103096
C            1.26226357864045        1.15987529934397        1.27109022696181
O            0.69149102473907        2.43969968312790        1.41159463655391
C            2.78614441614691        1.30661571148190        1.10798070958146
O            3.33854371572853        1.91995573419794        2.24133646690989
H            5.15986465396089       -1.71688933840640       -0.30147486658455
H            5.48798660595227       -1.60256964902278        1.44824792323708
H            6.54909276380160       -0.75564797585144        0.28330397963325
H            3.24462029368145       -0.75910850806723        1.62350969736489
H            1.25227362466921       -1.54524035194325        0.59319111593093
H            1.43637943798472       -2.53467384936227       -1.53890732253556
H            2.39029541317254       -0.48383765797927       -2.47136945009937
H            0.90241099922343       -0.10586747515450       -2.94667841198687
H            0.61600063808010        1.12482785386991       -0.77735038211169
H           -1.25638970027350        1.96668799341036        0.64783575268891
H           -2.40174723001135       -0.89151655736003       -1.20581804208835
H           -3.35805149432770        1.10532035822085       -2.87451320109765
H           -3.60390134104760       -0.64491780073992       -3.13322108935392
H           -5.62189798040330       -0.36703764682971       -2.09624483240641
H           -4.83898658806397        0.38353095692868        0.13310687972263
H           -5.31478967002681       -1.95951550893693        0.35035513213326
H           -2.68013064968869       -1.52383330163924        1.15013786731037
H           -3.90598861810825       -0.91401525938749        3.15946055119207
H           -3.28150933184668        1.38776094370439        1.88315064193677
H           -1.13547726864734       -0.27652146620112        2.59824415037855
H            1.06289346922939        0.56443138052013        2.17932144444196
H            1.25252101741723        2.96112331742361        2.00945188891571
H            2.99906592590900        1.98591701615869        0.27568056706412
H            3.36330762479468        1.30047511379116        2.98530518284821
