48
 energy: -84.741815649281 gnorm: 0.000806750830 xtb: 6.7.1 (edcfbbe)
C            5.61495612611943       -0.86511952462623        0.13453535203437
O            4.86946967097372        0.29076596581592        0.51270091366960
C            3.51696760129345        0.05670869703023        0.70449757213348
O            2.92724812806754       -0.34508999746421       -0.50162660397691
C            1.54203583695222       -0.64269169436623       -0.37793581142144
C            1.12723717522106       -1.24192604397797       -1.71068954678542
O           -0.02561185293747       -2.29847553425020       -1.36438080019164
C            0.76683138421305        0.62429506738070        0.08197669623679
O           -0.57381199269928        0.18434491890264        0.25244245312518
C           -1.56524469443245        1.16708147521042        0.45683600311424
O           -2.26335575432887        1.44899983163414       -0.72442662394661
C           -2.91005581163984        0.32716359360028       -1.31096517721491
C           -3.61208472067551        0.81095421486226       -2.57993382529993
O           -4.67190517396559        1.67030544262405       -2.23136243302590
C           -3.90647082156032       -0.32998831611320       -0.34902958244218
O           -4.37026773115451       -1.50749223826076       -0.95989143443994
C           -3.21611683492622       -0.63620286537066        0.98326946340981
O           -4.18598318897840       -1.12875633509603        1.87902028648114
C           -2.53099738105565        0.62265230180766        1.52764550161426
O           -1.87523551927213        0.34488081552828        2.73757412192573
C            1.37734489747479        1.19677783237616        1.36928654227552
O            0.79346199360728        2.43892264886253        1.68369256279292
C            2.89094880735418        1.36607008071586        1.19853549384500
O            3.41211458843273        1.76091660355617        2.44079275166970
H            5.23218706338345       -1.27008823006241       -0.80253910223280
H            5.55470084213870       -1.62267927990128        0.92094988539998
H            6.63774075543346       -0.52106949886660        0.01542387958279
H            3.36392066795479       -0.73692740513330        1.47223551224768
H            1.42053498509453       -1.38721083774516        0.42952059903066
H            0.54783901226850       -0.47427332423775       -2.25620882216309
H            0.45154247716711       -3.06449073208546       -0.98247437813935
H           -0.33477355476718       -2.58186051418018       -2.24961428882340
H            0.81565245893343        1.39480853368709       -0.70033821935537
H           -1.12711739309718        2.11611902086846        0.77438250562486
H           -2.15520653394398       -0.42239443337228       -1.58290679861360
H           -2.87274916656461        1.33539164331050       -3.19613502579869
H           -3.98608833107225       -0.07409857769688       -3.10774949530296
H           -5.08767280990944        1.99905216367737       -3.04089366005960
H           -4.73452303843979        0.36931466082498       -0.16457147501956
H           -4.95377981374280       -1.96091897512738       -0.33313685352666
H           -2.44379422022839       -1.40277380102618        0.80675561416472
H           -3.83675614393532       -1.05985665445395        2.78067159466367
H           -3.28173074348068        1.38748028721179        1.74663121326449
H           -1.09462578422351       -0.19245166829023        2.53381442636299
H            1.20419368461902        0.48704395381049        2.19515691254860
H            1.29665584121600        2.82831487567389        2.41750279568576
H            3.07905372783293        2.13025966698272        0.42932554733854
H            4.37412830325394        1.84690021193930        2.36553281325601
