48
 energy: -84.857132396682 gnorm: 0.000542836893 xtb: 6.7.1 (edcfbbe)
C            5.61133046325939       -1.00797066487173        0.57836300090212
O            4.87333037565883        0.20014108585115        0.74822607117627
C            3.50793683453968        0.02812781612761        0.88601149476768
O            2.96581606035843       -0.43831058409979       -0.32990270635007
C            1.57377348770685       -0.65955052345242       -0.25633210311748
C            1.14264620899606       -1.24953664575500       -1.60599887800313
O            1.32437503296668       -0.36110719556595       -2.67250780576316
C            0.79246105183029        0.62488849120344        0.07685015476644
O           -0.54213116956862        0.18680358376250        0.27733538378345
C           -1.53252024192345        1.18048401937326        0.38949728068136
O           -2.23520434310034        1.36483105842085       -0.80944505110380
C           -2.87538155974359        0.19677909641996       -1.30540820126805
C           -3.60235999097577        0.57068601209734       -2.60259392333648
O           -2.75029324681656        0.95923658471400       -3.64550547717069
C           -3.87176074290366       -0.36759274977769       -0.28068747780460
O           -4.37793808549694       -1.57950085979967       -0.77806882545597
C           -3.17567941454663       -0.56387633819282        1.07309897408230
O           -4.06988894288971       -1.03803462412198        2.05212925612573
C           -2.50334825378716        0.74401996322859        1.50420319833748
O           -1.79592429915328        0.60164926560755        2.70555059741113
C            1.37457729226770        1.31182557031196        1.32228550932375
O            0.84783060158085        2.61290859954537        1.42555971541781
C            2.90570388921136        1.39207001321053        1.24134336459647
O            3.36731856105118        1.85083130052045        2.48428125348521
H            5.29830030773141       -1.52372652034569       -0.32994893715987
H            5.46906547734119       -1.66202090937717        1.44299839183407
H            6.65036731110791       -0.70196364434113        0.50158431397734
H            3.27695855392425       -0.70365940258171        1.68932475108070
H            1.35377873663109       -1.38925581896175        0.53843499561878
H            1.70456146810828       -2.17688069233855       -1.77062860980720
H            0.07663976981098       -1.47449804484119       -1.55947228423208
H            2.26494168464946       -0.13783549530201       -2.73065410618697
H            0.83480028563769        1.32519845951371       -0.76864335800565
H           -1.09413378657549        2.15227324217230        0.62806331201426
H           -2.11913751364030       -0.57456059040008       -1.51106125595173
H           -4.23968744182215        1.43580041695149       -2.41014053358381
H           -4.22197211053588       -0.28682527128536       -2.89401238208879
H           -2.11951831161210        0.25073602613521       -3.83509396865284
H           -4.69117159797885        0.36181861048983       -0.15566139351030
H           -4.77936989966841       -2.07313529642360       -0.04445265053167
H           -2.40500286058496       -1.33583477785434        0.97545150258804
H           -4.78072844919491       -0.39227460898986        2.18766951896497
H           -3.26731496371138        1.53396019563357        1.60425999101034
H           -2.28381668327504       -0.01710918965242        3.27511318991879
H            1.09224686116891        0.72104876716264        2.20708585546591
H            1.26019608585057        3.04550817748645        2.18996648743940
H            3.17859307735369        2.09226285717373        0.43745968032883
H            4.33406245023830        1.90905124782857        2.46076958591334
