48
 energy: -84.739169571754 gnorm: 0.000395558197 xtb: 6.7.1 (edcfbbe)
C            5.63705400348366       -1.06553678589450        0.39739172450560
O            4.90661785275970        0.13045834446936        0.66095808697683
C            3.54623812306432       -0.04781004267981        0.80740465287459
O            2.98954731271788       -0.42389818152206       -0.43516121936827
C            1.59345926987856       -0.63882782381783       -0.40853447518816
C            1.20107082135901       -1.04225568679919       -1.83896151919976
O            1.55774399814621       -0.06605395974998       -2.77664585975353
C            0.80653542604187        0.60553777178584        0.04430346636679
O           -0.52720253327868        0.15477641188017        0.22291520992619
C           -1.50886622224391        1.15067669041450        0.41743944216485
O           -2.22058017690856        1.41331068040347       -0.75523463273222
C           -2.91003654340805        0.27313826522220       -1.27274922792416
C           -3.54196000427436        0.67121221903956       -2.59797401711135
O           -3.94709101207760       -0.69736362681273       -3.21543434834500
C           -3.90554023897590       -0.23369025112218       -0.19767744062535
O           -4.58626103974982       -1.36875880201302       -0.68989530115534
C           -3.17510147946629       -0.56011578670230        1.11165188022465
O           -4.07450797188844       -1.07777293192857        2.06662387713180
C           -2.44137855222769        0.70037825988866        1.56196410232843
O           -1.73123819131885        0.45360367341577        2.74550433758573
C            1.39777393676294        1.09986911823409        1.37829785058039
O            0.81049199069411        2.31156006487971        1.79430740966792
C            2.92061773798469        1.27395746181187        1.26760007513738
O            3.44263117744457        1.75797497356356        2.47310417333000
H            5.32328883486040       -1.50691117968363       -0.54914141506662
H            5.49036276134315       -1.78619701161312        1.20702105730665
H            6.67785946442902       -0.76050430791464        0.34760652617575
H            3.32800520880712       -0.84877039435296        1.54977580805038
H            1.34579477829865       -1.45493109713682        0.28644961999511
H            1.67690901425268       -2.00135750996117       -2.07619387492120
H            0.11709326976341       -1.14793079857432       -1.89214991055245
H            2.51341565826569        0.07907792868786       -2.71502949724293
H            0.84922498815901        1.39331209510111       -0.71695245644295
H           -1.04154363616235        2.10614844629466        0.67906020985008
H           -2.17872388062542       -0.53072324885464       -1.45527843043815
H           -4.51471828198289        1.15763773212521       -2.35074188308811
H           -4.48668909735072       -1.22151672530120       -2.57416582713280
H           -4.45406350919813       -0.48861550789120       -4.02362325805322
H           -4.63598981790168        0.57249444383366        0.00036320317468
H           -4.92696622492535       -1.87134362541589        0.06683410204341
H           -2.43833612102774       -1.35122155839568        0.93447610359365
H           -4.52134087544074       -0.35435282885754        2.52865035796580
H           -3.17995275177695        1.50712674767646        1.71391487322757
H           -1.19480312651247        1.23293419497418        2.95506133093411
H            1.17719869225080        0.32260808702887        2.13174888918662
H            1.47557905998314        2.79857008789759        2.31341902047376
H            3.15102155838866        2.03558100679634        0.51530227781483
H            3.46330629177687        1.05767797114303        3.14273180261978
