48
 energy: -84.853805308689 gnorm: 0.000332936898 xtb: 6.7.1 (edcfbbe)
C            5.60460991668629       -0.96235062695955        0.51074930717773
O            4.85225390312966        0.21377288447914        0.79890873734565
C            3.48639801560434        0.01510654959321        0.89660332990997
O            2.98325889965919       -0.42376774138223       -0.34327740954790
C            1.59317432901679       -0.64720410688337       -0.34280650699386
C            1.21851937611082       -1.09418393635039       -1.75977426334507
O            1.45457535044549       -0.03138151581254       -2.64829997306108
C            0.77306835913965        0.59237938602592        0.06341354963768
O           -0.55229725706984        0.10310111105460        0.23308065081205
C           -1.57223513365770        1.07026132834223        0.39087988592593
O           -2.26489094209067        1.29144948625632       -0.80558661973732
C           -2.91619346601480        0.14208418766406       -1.33228240654845
C           -3.51828326277772        0.52162271322834       -2.68259168474485
O           -2.50598742696918        0.47202845263760       -3.65981885909843
C           -3.98173500784467       -0.35250547706032       -0.34741711664904
O           -4.61048133272641       -1.48676131378271       -0.88300432868800
C           -3.30010165613318       -0.66610851780209        0.98847353547455
O           -4.29382273084400       -1.06160176964351        1.90523962217232
C           -2.53177317214788        0.56425146770594        1.49018442371773
O           -1.85335788949482        0.27115038537379        2.68259316190215
C            1.32858120421372        1.21945947668190        1.35224321760612
O            0.74592018483737        2.48271120111394        1.55374152060978
C            2.85334575360062        1.35813392562352        1.27466471156769
O            3.29391893668859        1.80797714580631        2.52846046155746
H            5.31795797155519       -1.36777919602055       -0.45988663510273
H            5.44438691119903       -1.71329744963485        1.28927867750320
H            6.64255657706000       -0.64359784780420        0.49828464264203
H            3.25246464651120       -0.74555102915917        1.67468644453326
H            1.34760627630034       -1.45381580742090        0.36686080375249
H            1.83920164423572       -1.96112482515779       -2.01330342246952
H            0.15970209321065       -1.37980181356239       -1.76094352847305
H            1.30288782585232       -0.33568071144433       -3.55414995493766
H            0.80453717895313        1.33685169154360       -0.74088544668429
H           -1.15164777931550        2.03950972505443        0.66938730531736
H           -2.18201059967270       -0.65837184341962       -1.49447397612522
H           -3.93551266148027        1.53091020112917       -2.59505994827929
H           -4.31296988286794       -0.19892952245109       -2.90955843144743
H           -2.86246595808939        0.78906929951924       -4.50192975706442
H           -4.71628562034894        0.45199684901754       -0.18314393471120
H           -5.17264078659439       -1.87250333446885       -0.19247813464061
H           -2.58389174751190       -1.48948885190764        0.82995440507185
H           -3.92855462023311       -1.01107936717696        2.80162548764298
H           -3.24271555833814        1.36144499839398        1.72795441833531
H           -1.11435295279075       -0.31764322832273        2.46627990960077
H            1.09002082775716        0.55979325150015        2.20234357660554
H            1.19258537890421        2.90449287860355        2.30581944737349
H            3.10784898419907        2.07655364772385        0.48192475556314
H            4.25946090553270        1.88626959994597        2.51461130458894
