48
 energy: -84.740726784815 gnorm: 0.000982121474 xtb: 6.7.1 (edcfbbe)
C            5.47402230775582       -1.30545685877602        0.74672394313647
O            4.84035029323590       -0.03640522515274        0.88797930713155
C            3.46108804439644       -0.08149468015621        0.90176542669564
O            2.99991338397119       -0.42288551167695       -0.38925483263044
C            1.59936479037534       -0.57450275407869       -0.46600148089332
C            1.28188015357414       -0.92940810006725       -1.92664311686702
O            1.73193256444175        0.05276598259553       -2.81746396065953
C            0.82469570776525        0.68358405540902       -0.03111920622092
O           -0.49928228363930        0.20322792659247        0.17840926260996
C           -1.50843634361720        1.16385775940351        0.38325131761976
O           -2.25040406911869        1.40977155463893       -0.77380831044713
C           -2.89363726804156        0.26453122603988       -1.32990070994477
C           -3.54658504535216        0.75374894898873       -2.62079033885099
O           -4.28584334729228       -0.46839722344566       -3.23250582829917
C           -3.85796664850365       -0.34587012536754       -0.27481736292867
O           -4.40224853602046       -1.53789555880934       -0.80729088178671
C           -3.12039692619613       -0.62734207411575        1.03467041827690
O           -3.98495499597334       -1.15347349159588        2.02114242001852
C           -2.42125018678702        0.64504511183343        1.51353124515860
O           -1.64937285344344        0.42412189518642        2.66325199798503
C            1.39581121821139        1.32466590737173        1.25333087516345
O            0.91449121007255        2.63340360640203        1.45178647196692
C            2.93381834240790        1.31429676954114        1.27661496303392
O            3.43961589426796        1.77579333017322        2.49519174742853
H            5.19002570183049       -1.77396310562296       -0.19668703790545
H            5.20444059203722       -1.95915664424307        1.58110157906663
H            6.53941302670661       -1.09647186378067        0.76076586975163
H            3.09195625405087       -0.84037134923304        1.62537088938827
H            1.27429767880010       -1.39509695419999        0.19236616381408
H            1.73457513258632       -1.90123396500875       -2.15815208207541
H            0.19987579173911       -0.98923953564986       -2.04616225986083
H            2.68763612208577        0.15365980356678       -2.70088685763562
H            0.82938332837483        1.42040282326597       -0.84704188869910
H           -1.08466431888841        2.12802073880643        0.67605449239832
H           -2.12998721945185       -0.50191940797480       -1.54748985410918
H           -4.39431648897510        1.40417570701212       -2.31756152159618
H           -4.56354071516540       -1.09418798037604       -2.51477780396751
H           -3.63814837243003       -0.90518035743663       -3.81913157132402
H           -4.66563929457095        0.38203961454880       -0.07993261101822
H           -4.81374613733096       -2.05003456018998       -0.09436039381107
H           -2.36260240633920       -1.39956310968926        0.86326178978561
H           -4.65891760722379       -0.49487824326129        2.24810628425480
H           -3.17708868678423        1.42687205907028        1.70614433059841
H           -2.12547960783397       -0.20209662602632        3.23431228491707
H            1.00531088847850        0.75021045489016        2.10380737627976
H            1.42083845525386        3.25746851612457        0.91014237011532
H            3.32295073041898        2.00865129474996        0.52274440876640
H            3.09855974246749        1.24287520983918        3.22862170078976
