48
 energy: -84.738276154954 gnorm: 0.000387142297 xtb: 6.7.1 (edcfbbe)
C            5.79648040869119       -0.70892964074053        0.17018982459171
O            4.89252187521256        0.35874961556813        0.44090811248169
C            3.61354747993396       -0.03231460336721        0.78005396857625
O            2.97294867593784       -0.54095548161665       -0.37370163314024
C            1.60095325691189       -0.83946135820865       -0.20370769590270
C            1.10797763658863       -1.46092288306725       -1.51835927138877
O            1.60631277179175       -2.75445003033463       -1.72230416143498
C            0.81209278168273        0.43333997517779        0.14811104030399
O           -0.55141501859010        0.07286731865745        0.27707750919775
C           -1.47147516318519        1.14399067331781        0.36124777065034
O           -2.09986727039398        1.37018017575008       -0.86412774220187
C           -2.84901994674677        0.24625939847905       -1.33558473329201
C           -3.40309325687706        0.60006236734814       -2.70656106197440
O           -3.85842333866959       -0.77672990980711       -3.26580407582200
C           -3.91296783579007       -0.13273299676300       -0.27241790751738
O           -4.63660226155651       -1.25037235308087       -0.73813662884496
C           -3.24870049635428       -0.42327332077663        1.07738260169081
O           -4.26531483876622       -0.76146160961571        2.00151930923089
C           -2.47940362859942        0.84062891831206        1.47877885137947
O           -1.76029574099001        0.72418230817409        2.68274593672339
C            1.38913586077349        0.90973243879646        1.50246241001595
O            0.80043683281210        2.07575477219559        2.03193240902734
C            2.88952375639431        1.19386866120094        1.34854419092420
O            3.46982803158650        1.48068876737907        2.59099453092684
H            5.49866740404661       -1.24406406243720       -0.73227608249525
H            5.83452785312931       -1.39817493776476        1.01815278839602
H            6.76310725640733       -0.23521238801353        0.02650181975572
H            3.63288460496170       -0.82030340073811        1.56276052283536
H            1.47106177055881       -1.56914012395922        0.60947396844243
H            1.38130004544983       -0.79258876977958       -2.34217791823502
H            0.02227344879730       -1.55018112481564       -1.47266190889084
H            2.56827800489810       -2.70790278620566       -1.81507980594702
H            0.94056139183268        1.19738378383339       -0.62663191338238
H           -0.95301575745016        2.08519551478613        0.57170071928944
H           -2.16687244730863       -0.61282039696551       -1.44168884801932
H           -4.35495618127900        1.15312704896571       -2.53153347698567
H           -4.45205899330733       -1.23340902165552       -2.62034368362712
H           -4.31836338575681       -0.58966264485689       -4.10672942511337
H           -4.59664046127628        0.72318446066145       -0.13813615317912
H           -5.20424682984622       -1.56751167302791       -0.01925785529444
H           -2.53416004773790       -1.24670496418305        0.95675290758165
H           -3.89125733445533       -1.27281834632984        2.73162639738708
H           -3.18349722037264        1.68354956605671        1.52826433025625
H           -2.38669401059579        0.67933557521939        3.42161120669764
H            1.26406210105428        0.08400053292407        2.21728469665961
H           -0.00894706287850        1.82644853614746        2.50924294555694
H            3.03152939731154        2.02876530960321        0.64783397275614
H            2.99541589259362        2.23592513797019        2.97499526085840
