48
 energy: -84.744607280490 gnorm: 0.000415825629 xtb: 6.7.1 (edcfbbe)
C            5.71807737930026       -0.84812988174852        0.31015002267611
O            4.92184791021594        0.29989281437590        0.59885546916851
C            3.57317266190780        0.02886138260405        0.76577931904680
O            3.03158664419760       -0.45931024751243       -0.43315392076133
C            1.67044968987079       -0.81906304013610       -0.30921211115038
C            1.30857038507071       -1.55225066672811       -1.59438213316663
O           -0.11569536480778       -2.13728765205114       -1.35666789801663
C            0.81574004236800        0.44437013675112        0.03264130905012
O           -0.51739392713274       -0.03047393991736        0.24149019840961
C           -1.52615875154784        0.95539842452031        0.35246530344952
O           -2.22966253199661        1.11424184114071       -0.84343996727973
C           -3.04914509904363        0.02094557479922       -1.26211578996940
C           -3.81089954515880        0.51751302637240       -2.50213337771900
O           -4.53364090284403        1.69214135389001       -2.24039503185803
C           -4.03588992863450       -0.41107633799250       -0.15947682137032
O           -4.81442714860610       -1.50574620605316       -0.55715861760237
C           -3.26903272026029       -0.67705442998093        1.14159437934949
O           -4.09775156802374       -1.07421285705208        2.20603141807007
C           -2.46405311457383        0.57844936022434        1.51254555362318
O           -1.69573543281714        0.37696732936225        2.66732252059344
C            1.37072164798628        1.16343574528757        1.26957846588851
O            0.77070254940103        2.43335240864877        1.40484528235372
C            2.88961765357967        1.34343559954733        1.15692077883429
O            3.34647600175904        1.82612770646240        2.39332478709195
H            5.37762624052371       -1.32132535521164       -0.61151301022475
H            5.66040245043962       -1.56152528704638        1.13715665998160
H            6.73141915386106       -0.47446983683439        0.19911591188992
H            3.42178818714943       -0.72512809691720        1.57119080383150
H            1.56836480943473       -1.49883054733148        0.55940197745520
H            1.11620348246458       -0.78302553265933       -2.36836808485312
H           -0.53904490070642       -1.56614254765538       -0.67152715356852
H            0.02753010233482       -3.04565695829232       -1.01892790252777
H            0.83037577299063        1.14169686293966       -0.81679423026961
H           -1.07270064462983        1.92858674626458        0.55262509620588
H           -2.42245897513843       -0.83257886417198       -1.55325437108735
H           -3.09664405035143        0.67449811399697       -3.31850649097632
H           -4.54371422335465       -0.23729113688041       -2.79245414097055
H           -3.90604974893571        2.37807933022147       -1.97090375006065
H           -4.74807607458411        0.40931882662692       -0.00446681101152
H           -4.27052538569749       -2.30532197189969       -0.61308942729123
H           -2.56529541719789       -1.50631526378812        1.00431514989465
H           -4.91569029027968       -0.55691074254266        2.20501503777167
H           -3.15814309848530        1.42257394246643        1.65902860472693
H           -2.23653235466753       -0.12590064976384        3.30009202821162
H            1.14608842797169        0.55146288936148        2.15701047003486
H            1.20233239586376        2.88760543679519        2.14582759100413
H            3.09710839204264        2.06564076581121        0.35181601296022
H            4.31010823099035        1.92082245579816        2.35721693532428
