48
 energy: -84.846096535295 gnorm: 0.000430371495 xtb: 6.7.1 (edcfbbe)
C            5.42800878944921       -1.30760695445428        0.71948303501120
O            4.80145465566296       -0.03343956266646        0.84789694609444
C            3.41960692785209       -0.07164940376156        0.86515088309578
O            2.94165858616049       -0.46146619913076       -0.40442017740780
C            1.54183212487187       -0.62241838613354       -0.43216806680822
C            1.20146889415580       -1.09527502624124       -1.85078871080472
O           -0.09155018602688       -1.64403218639039       -1.88044800164372
C            0.78111267602026        0.65740859284923       -0.02945753906397
O           -0.53601756658306        0.20362998432716        0.24507687494712
C           -1.53998823432909        1.17071290882328        0.43793757048467
O           -2.31439283262429        1.36002636155639       -0.71446269187246
C           -2.94470349028252        0.17284802506756       -1.19982560798059
C           -3.68596283795898        0.58613389522178       -2.47843917020083
O           -2.83107931333017        1.17652206764305       -3.42211257349659
C           -3.90187762998145       -0.40732095859275       -0.14096318431014
O           -4.43523206463359       -1.64522783448645       -0.53973834546035
C           -3.11993225883975       -0.63592858553344        1.16499564795313
O           -3.91465528525867       -1.17482313646555        2.18644976337527
C           -2.44135592697375        0.67571524620823        1.59395254291267
O           -1.72748463716919        0.53597947455936        2.79073310636794
C            1.39345263340336        1.38256258747871        1.19485216607833
O            0.92080127591765        2.70569180409086        1.28065977216461
C            2.92470383507606        1.34535941988999        1.18477186913459
O            3.38368883546671        1.78003724407415        2.43416066483562
H            5.15221076046203       -1.77437104498394       -0.22671563581896
H            5.13846420467645       -1.95593307506975        1.55100629495694
H            6.49498710249592       -1.10848127023166        0.74814364009798
H            3.04984214644501       -0.78538835083764        1.63072408846812
H            1.23678180841208       -1.40774921392845        0.27746931126040
H            1.28617138385966       -0.24686463795585       -2.54195724836555
H            1.95731606675366       -1.84250254218150       -2.11779323345454
H           -0.20283735848718       -2.13027058686045       -2.71052699456618
H            0.76711494027677        1.36088705817109       -0.87450907717955
H           -1.11776092099515        2.14876458368195        0.68400365831635
H           -2.17281049801098       -0.57398849734770       -1.42801636178589
H           -4.49209018537851        1.28256795528621       -2.20979352449685
H           -4.10398591616661       -0.29617981986341       -2.96357916712955
H           -2.38499156846949        1.91976615012021       -2.99186073547373
H           -4.70301239705655        0.32240143686201        0.05356707358871
H           -5.15268939944065       -1.51421880472946       -1.17416228477844
H           -2.35076880762036       -1.39138098516204        0.96882576032603
H           -4.62339601842873       -0.55639892833382        2.41712696276940
H           -3.19621798703802        1.44694112463916        1.78515577046177
H           -1.21318163601119       -0.28251535218862        2.75183386479218
H            1.03966963231002        0.88933153699491        2.10763864082805
H            1.49530423992237        3.30044568566092        0.77587235571129
H            3.30194870322641        1.99693494460093        0.37912125295539
H            4.35063173450033        1.70710225038542        2.45625280119837
