48
 energy: -84.854512606622 gnorm: 0.000399386606 xtb: 6.7.1 (edcfbbe)
C            5.62117869169017       -0.95723839593020        0.35083205656678
O            4.87323476295263        0.21920560237630        0.65215279320795
C            3.51407157922376        0.00800675990351        0.79738185265738
O            2.96294913064355       -0.38926145889021       -0.43754678619942
C            1.58897085780862       -0.68426102868579       -0.34784595505353
C            1.15154188795368       -1.21701220015322       -1.71295161129615
O            1.57796124599508       -2.55191430689078       -1.82486242314756
C            0.76163609836929        0.54456915941613        0.07587507721334
O           -0.55166004357908        0.04864707780767        0.28722106259199
C           -1.57635627727525        1.00480604726287        0.47437549646121
O           -2.29861523851451        1.20452674373848       -0.70795972227157
C           -2.96507453574329        0.04544087491567       -1.20337125132247
C           -3.63200974280520        0.46212768218710       -2.52138835914849
O           -4.67735386287364        1.37904905131095       -2.32964038894434
C           -3.97572544627774       -0.46682891907639       -0.16514628468456
O           -4.58502798490632       -1.67171756579349       -0.56594444294480
C           -3.23897231109749       -0.75369319005744        1.15097882348654
O           -4.13710854335385       -1.14582653603839        2.15774119181434
C           -2.49286127730248        0.50165749662148        1.61590949488982
O           -1.76080062395712        0.29149317058377        2.78923372140158
C            1.35327311441606        1.19314884641193        1.33933520438224
O            0.77946711711553        2.46582180840921        1.51261260263963
C            2.87936946445352        1.33270739119860        1.23622585078558
O            3.34234769460579        1.74577243798508        2.49412312725392
H            5.27644066998001       -1.39730653493031       -0.58553794732794
H            5.51913856204991       -1.68595793720145        1.15981724458622
H            6.65233429247102       -0.62900250726360        0.26265191037911
H            3.31328532396227       -0.77803047011588        1.55713195207015
H            1.42798795497929       -1.47608804848204        0.40016287077001
H            1.61013880242747       -0.58635197623548       -2.48240359969651
H            0.05901359225638       -1.14907928174177       -1.77504241905230
H            1.41162275215981       -2.86885707059148       -2.72436881412823
H            0.75762509173160        1.29448301010803       -0.72695593338795
H           -1.15847239257778        1.97997878444674        0.73489612525290
H           -2.23257119369571       -0.74935457800895       -1.40003792378116
H           -2.85933154262161        0.88194892420524       -3.17542601224452
H           -4.06912537939079       -0.41325942116495       -3.00338932510572
H           -4.30906426268263        2.18799335031234       -1.94773575279495
H           -4.72846614220461        0.31160457166476        0.01745118705683
H           -5.27082655553278       -1.48640848251156       -1.22210427060511
H           -2.50294683781441       -1.55320791900039        0.96376882894268
H           -4.67867906820208       -1.87117708336529        1.80871414236543
H           -3.22056817940976        1.28298312472090        1.85532515439359
H           -1.22829279431054       -0.50981852333602        2.68348037915541
H            1.12198826864690        0.55519050256201        2.20556119516645
H            1.19218470429903        2.88316924186675        2.28545701405933
H            3.11560321887214        2.07990375069304        0.46373967744469
H            4.30772636066235        1.82476703984042        2.46719422484077
