48
 energy: -84.854210543893 gnorm: 0.000301499159 xtb: 6.7.1 (edcfbbe)
C            5.63386773202501       -0.89638520685018        0.26071553108967
O            4.85986563036714        0.24192976107102        0.63160003879933
C            3.51158883713526       -0.01259720458457        0.80682461379020
O            2.93624178989316       -0.39980244308955       -0.42051213059705
C            1.55420308909675       -0.66388179300872       -0.32726630353692
C            1.08182613283122       -1.15777792279047       -1.71260322406959
O            0.98061772703176       -0.13905219161345       -2.67366165614983
C            0.75950205364430        0.57033951510779        0.13517940986705
O           -0.57448664691587        0.11406164308821        0.28066913233698
C           -1.55919947387785        1.10018161426477        0.47288256082353
O           -2.22099114081875        1.35673791601607       -0.74048097836037
C           -2.81587499184412        0.18526135719650       -1.28738326321855
C           -3.27621708823364        0.50630284466533       -2.70311280750437
O           -2.13285329759696        0.51116904326978       -3.52922621756013
C           -3.93747763295904       -0.30031469108263       -0.36395509105245
O           -4.53526744332329       -1.43782549916772       -0.92407929612997
C           -3.32629644292984       -0.60503269414223        1.01174027383208
O           -4.37544186512323       -0.97539893454920        1.87250117629256
C           -2.57564368669448        0.62627174095333        1.53115226663615
O           -1.96660366466568        0.28193409863425        2.74744387478876
C            1.34992377522908        1.07068912343588        1.46471561587932
O            0.73481047049495        2.26935983359164        1.87210200387128
C            2.85938226379615        1.28032816579821        1.31052187038880
O            3.35810114877263        1.67091840269697        2.56234683425098
H            5.29878758251120       -1.28707126664515       -0.70046146437892
H            5.55186603483143       -1.67309128358148        1.02619514143267
H            6.65663914829353       -0.53861293801726        0.19052182707062
H            3.35602858679864       -0.82443494432395        1.55161581135845
H            1.37983057822941       -1.46579115297468        0.40721202073779
H            1.83868118119573       -1.85631658622798       -2.07915168924241
H            0.13249263592935       -1.68230844662273       -1.58301593788854
H            0.07683791520805        0.20897542475760       -2.71118167590135
H            0.81971546196274        1.36783159617549       -0.61578435489645
H           -1.11363498573173        2.05332246896909        0.77099919879760
H           -2.06137508251668       -0.61025512219846       -1.35378930321704
H           -3.76318395952616        1.48750037763856       -2.69926824575353
H           -3.98487830209744       -0.26911820545702       -3.01336993972461
H           -2.39787854036187        0.71793031705018       -4.43660849497059
H           -4.68007901630436        0.50470921065245       -0.24325919000456
H           -5.12752138235384       -1.82410613046614       -0.25944742481788
H           -2.60322160939172       -1.42809643236612        0.90962329460918
H           -4.01697934321313       -1.08847448008670        2.76501770740214
H           -3.30361108723364        1.44031147585665        1.67320491567700
H           -1.49251011676204        1.04954585095584        3.09684783923986
H            1.17925525573479        0.29464593291951        2.22891901924772
H            1.31064912129251        2.67981697683839        2.53909720914354
H            3.04275520066890        2.05694431957901        0.55295492075792
H            4.32036745943579        1.76834558883853        2.50504359784134
