48
 energy: -84.736389852682 gnorm: 0.000864325221 xtb: 6.7.1 (edcfbbe)
C            5.75352891368790       -0.37798568869878       -0.16889478792958
O            4.85780948259205        0.64209782929669        0.26958607154304
C            3.61293828822559        0.17252373811670        0.64832803546098
O            2.96185786538250       -0.33437783156200       -0.48790071700835
C            1.62610047566803       -0.77126432930989       -0.26576692220436
C            1.22838508013154       -1.48519558132846       -1.54543076631788
O            0.07343950170134       -2.52080026366075       -1.13031215480195
C            0.78210870972864        0.46276140929717        0.15683200118841
O           -0.56255885906125        0.03757934373252        0.31557165750622
C           -1.51653820966624        1.06207375494043        0.46364218152351
O           -2.18930564338502        1.29274470530850       -0.74529422742187
C           -2.90471013307773        0.14457530435323       -1.20654557380893
C           -3.53812078968778        0.48888155622979       -2.57035681476292
O           -4.81590864263592        1.06407192583292       -2.48872847811831
C           -3.95122975388138       -0.27538606533343       -0.16097527995491
O           -4.72592263753610       -1.36868551707936       -0.58136920162310
C           -3.25844653215511       -0.56132406134390        1.17934363118717
O           -4.18573195370707       -0.87296435420299        2.19189196969370
C           -2.48513639974500        0.69121268423824        1.59313591695056
O           -1.73249325259711        0.51947820189172        2.76519346442960
C            1.37456182940288        0.94757762035633        1.49681748815995
O            0.73311260039654        2.06403097240763        2.08292494772453
C            2.84482760450940        1.33428913909826        1.29072993373394
O            3.46114133085041        1.62701768822391        2.51486951912424
H            5.33541250004459       -0.90260103120906       -1.02924522828226
H            5.94408836838675       -1.08419025427023        0.64440834503512
H            6.66701591645705        0.14148317678633       -0.44179858066304
H            3.71414187626380       -0.63514648376597        1.40842858638932
H            1.62089373219738       -1.47344933565627        0.58614443655982
H            0.64841035932774       -0.77068709451344       -2.15911757614854
H            0.51854735217099       -3.15566989307340       -0.53213422160910
H           -0.07177187208065       -2.99543176296706       -1.97698657439633
H            0.85412536641477        1.24713178652330       -0.60693548087898
H           -1.03309844737025        2.01869485446232        0.68426139815649
H           -2.17883282665777       -0.67000897774134       -1.34127313924795
H           -2.89742746029927        1.23296619822930       -3.04834696916823
H           -3.56480118546902       -0.41356063035258       -3.19019070566718
H           -5.45152674177158        0.38074640016249       -2.22533884551075
H           -4.65192146958168        0.55513687887975       -0.01533749418485
H           -4.15197438790727       -2.12738698011611       -0.76618122459123
H           -2.53844336214106       -1.38644238801736        1.05802847225195
H           -4.90014321397999       -1.40518416384405        1.80731368378196
H           -3.19954570945652        1.51993676928348        1.71495774499842
H           -2.31023672540190        0.13102352223193        3.44214731697921
H            1.33438135637819        0.10317595723345        2.19983310045212
H           -0.02646158995764        1.75044510399633        2.60160864722816
H            2.90048335397976        2.19497076994686        0.60828402366702
H            2.95204395968407        2.33395842718167        2.94416257793926
