48
 energy: -84.851058210835 gnorm: 0.000775486258 xtb: 6.7.1 (edcfbbe)
C            5.52319573035506       -1.21403654068466        0.52556622871033
O            4.85846244949457        0.02305512633129        0.77441117526615
C            3.48562397645078       -0.08009133428395        0.87859243048671
O            2.95271575638635       -0.49172819431222       -0.36207876305619
C            1.56052937290036       -0.69836104578383       -0.32995065112370
C            1.14317238839822       -1.22572446753087       -1.71064605560425
O            1.56718632651498       -2.53663670692500       -1.95755388376439
C            0.78400604412509        0.58417148648181        0.02260993117385
O           -0.54558195710119        0.14517021186354        0.25809529204163
C           -1.53099502922466        1.14438227861830        0.38891642285391
O           -2.25343173117912        1.30378927184401       -0.80015286712803
C           -2.94787216062365        0.13812184148166       -1.22641148336860
C           -3.70575856619962        0.49855175629587       -2.50539318605194
O           -4.74311207627356        1.39963586583835       -2.19600932826623
C           -3.90997020469458       -0.39173060393057       -0.15399972631652
O           -4.41086413439069       -1.62470414203771       -0.60874791907403
C           -3.18158327457884       -0.54862207263683        1.18628182679764
O           -4.05809949080868       -0.95568166901079        2.21147706038504
C           -2.46890674948623        0.75863504582652        1.54427127145342
O           -1.72041025920958        0.64384126447277        2.72398789430211
C            1.37725514914078        1.26123014818408        1.27102136391748
O            0.89065891976808        2.58075326861364        1.35430986702174
C            2.91801765570319        1.29650762266078        1.24475188077537
O            3.41110754964064        1.79887695776484        2.45609829029102
H            5.19010147747941       -1.64214742249736       -0.42098446526353
H            5.32883767247199       -1.91839807585970        1.33962381492924
H            6.57965086625055       -0.96799339347445        0.48240039278665
H            3.20240324497504       -0.82939254935536        1.65327257024785
H            1.31579995274491       -1.44426391485533        0.44472331991168
H            1.62260712901074       -0.60733836688553       -2.47153740052305
H            0.05435302473658       -1.13408823664387       -1.79677928113564
H            1.12351378438119       -3.14594267096349       -1.34983226295453
H            0.81177159283830        1.29576902181905       -0.81261267505797
H           -1.07491200146011        2.11748304873724        0.58960968518267
H           -2.22572463105634       -0.65831882593966       -1.45520252934177
H           -2.99105909684944        0.94827380343132       -3.20285745137240
H           -4.10953208029238       -0.43083810665081       -2.92462171653834
H           -5.16172431372670        1.69105294184246       -3.01832980786479
H           -4.72718592625392        0.33873639206276       -0.03993124594454
H           -4.87044096107039       -2.06128532645193        0.12586840619633
H           -2.43318295526727       -1.34378516719230        1.10144554824073
H           -4.76373685889931       -0.29860774715262        2.31628333306186
H           -3.21460937689885        1.56611781942847        1.63991109276012
H           -2.23240847363240        0.10722287461751        3.35323698093941
H            1.03664101588255        0.68719561024869        2.14912222543735
H            1.39669053821010        3.04920141035036        2.03905349195131
H            3.24613208389683        2.00109611705687        0.47295633894025
H            3.33299161048221        1.13406940201700        3.15693657093208
