48
 energy: -84.639551953419 gnorm: 0.000859867582 xtb: 6.7.1 (edcfbbe)
C            5.71667150159608       -0.96158883458555        0.32206602408307
O            4.92008070176868        0.19668860526134        0.56559152493197
C            3.58149921710295       -0.07350533394071        0.80455776637355
O            2.97528076231427       -0.54218799768417       -0.36741338031782
C            1.59947060475275       -0.87415076504286       -0.19017523537856
C            1.15336917669582       -1.68757761808698       -1.38382794339699
O            1.23160824530346       -0.80852558477717       -2.63919730469126
C            0.81855552601073        0.44074322693383        0.15213080498472
O           -0.53645425208609        0.05415465758838        0.29462383910003
C           -1.48536690439951        1.08871441758835        0.37863419350546
O           -2.11432229181001        1.28405207299859       -0.85797636512557
C           -2.78261497030628        0.12380798972073       -1.35887938452346
C           -3.26812881144516        0.50438793853431       -2.75686809298648
O           -4.04063945315206       -0.72259104489322       -3.30480395689944
C           -3.87150004819247       -0.30913160947649       -0.34367864280598
O           -4.48140094541215       -1.49355872620050       -0.81323265341612
C           -3.25515399719863       -0.53148240289412        1.03924985246224
O           -4.29715919217775       -0.86719214328947        1.92731809287884
C           -2.51755483834113        0.73742778479596        1.46410573056393
O           -1.92492114154564        0.51303096089324        2.71739161329156
C            1.41509195162849        1.01983457202323        1.44416201661627
O            0.79913332123824        2.23757440391741        1.80783926069692
C            2.91977894910779        1.23630887062504        1.25331944749675
O            3.43845077013564        1.70224931346935        2.47155998145652
H            5.32520629283647       -1.52265123492772       -0.52637484255927
H            5.73054907106696       -1.60134301850435        1.20901848324760
H            6.71294293333076       -0.58659073765219        0.10824223020097
H            3.46912498124307       -0.83456872210066        1.60755225357271
H            1.48636899488618       -1.53526849109863        0.68336115740640
H            0.74568177025782        0.04281720323506       -2.58735487138147
H            0.07115224621614       -1.85685964165521       -1.25487478011885
H            2.18791762406350       -0.64494870723707       -2.76601312927600
H            0.91244304858145        1.19464491720200       -0.64223029014531
H           -1.00673571326214        2.04587979965867        0.60951174146838
H           -2.05766190001755       -0.70637656958496       -1.41369323629211
H           -4.08411637202529        1.24420842467923       -2.61189944003350
H           -4.44187759863929       -1.22887872185200       -2.55146945741802
H           -3.38045233522300       -1.28226232709207       -3.76083793897293
H           -4.62256660040279        0.49394055914992       -0.25690845420367
H           -5.06152412494510       -1.83881143049585       -0.11809001860362
H           -2.51979608259704       -1.34930332102473        0.98502667082061
H           -3.93865814595582       -0.89562566412843        2.82561527422634
H           -3.24027335193407        1.56809479756124        1.51755356594769
H           -1.36806946448855        1.27097509939466        2.94473489979710
H            1.26407847397772        0.28480565090754        2.25198445580607
H            1.38601082325567        2.67646674653692        2.44616412866363
H            3.07848759985809        1.97861233811890        0.45529977074130
H            4.39916096045168        1.79772932238674        2.38859966539334
