48
 energy: -84.741398419018 gnorm: 0.000829257530 xtb: 6.7.1 (edcfbbe)
C            5.78979798139284       -0.79763346350834        0.30655244148478
O            4.95772701207747        0.30240365615183        0.67057315480319
C            3.62645221327176       -0.03011281528153        0.86211732309145
O            3.07289359592632       -0.49153000381579       -0.34172277554351
C            1.71081536186605       -0.85928628526434       -0.23119417824169
C            1.37144003017494       -1.55003669729124       -1.54490277986473
O           -0.08156543504315       -2.08307157286726       -1.39370367445438
C            0.86844977893499        0.40753689965879        0.13813902467247
O           -0.49375859677674       -0.00274676440332        0.24991666714804
C           -1.45013811022309        1.03827330027336        0.35247049455540
O           -2.08265201965373        1.28890251071776       -0.86689014576852
C           -2.91522622233679        0.24005902986291       -1.35904352238478
C           -3.62951611138408        0.76774861872822       -2.61301641009321
O           -2.79885194045137        0.86890427946409       -3.73753474957602
C           -3.94668459463456       -0.20503213528774       -0.31266809119931
O           -4.61470324688780       -1.33182975826186       -0.81600967802109
C           -3.27206682620383       -0.52493933362329        1.03583284693989
O           -4.23409971212070       -0.92771718968061        1.97600313165128
C           -2.45084772486141        0.68944304581783        1.46999860138414
O           -1.79367682045920        0.41401982740109        2.67635935589187
C            1.40574730459672        0.95012267127989        1.47308446360804
O            0.72663111443333        2.11232088878905        1.90053047343718
C            2.90167512889341        1.23732183978720        1.33185285189545
O            3.36529620970789        1.68250567657771        2.57937071661068
H            5.43915831205441       -1.24394077379728       -0.62446513870719
H            5.78734582846853       -1.54837183888556        1.10175541478758
H            6.78313415947414       -0.37738235709302        0.18183919001638
H            3.52852727997581       -0.82188009614950        1.63919354824779
H            1.60005166511357       -1.56451582157420        0.61408607596803
H            1.25045636319125       -0.75505245235436       -2.30598191491636
H           -0.53166600225603       -1.52089475823415       -0.72033688172440
H           -0.00262267619101       -3.00701724327129       -1.07845775043323
H            0.96778096470632        1.16703175491275       -0.64753232162132
H           -0.94680921971567        1.97916513373626        0.59432595350578
H           -2.30161923908293       -0.62825579552556       -1.63488177149659
H           -3.97857985298396        1.78167493941075       -2.40854008805274
H           -4.48643739525248        0.11433765256406       -2.81035975659050
H           -2.54988396422942       -0.01655987800270       -4.03773373762723
H           -4.66141642699619        0.62094674816855       -0.15472780287653
H           -5.07380265977982       -1.76880786915248       -0.07985303625536
H           -2.60389009794755       -1.38410630428155        0.92435341936372
H           -4.67590222069878       -0.15636067413159        2.35843465540887
H           -3.12617816160534        1.55503917907549        1.58211029492583
H           -1.16130074076981        1.12544522290804        2.85939440119649
H            1.27279647629095        0.16428727631087        2.23562623229571
H            1.30473778433990        2.56245942019322        2.53960826798240
H            3.05386214614405        2.00676039750916        0.55915023334319
H            4.32428032206503        1.81100493125915        2.53335000629566
