48
 energy: -84.850726375317 gnorm: 0.000297891451 xtb: 6.7.1 (edcfbbe)
C            5.61346352709191       -0.97326270454574        0.49659289848801
O            4.85367170808113        0.21589488442097        0.69971325784995
C            3.49353398498453        0.01177248338710        0.84389550612763
O            2.95727244016756       -0.48520093959948       -0.36152954027942
C            1.56911531860775       -0.72139456124027       -0.29916557407329
C            1.14669108117560       -1.27911344288348       -1.66158559365756
O            1.22345011155985       -0.26238195922483       -2.63003345164924
C            0.75626142799972        0.53770277081299        0.05927334536337
O           -0.56448829269003        0.06271750084342        0.26686430055745
C           -1.58026993412140        1.03123004978539        0.39398123743868
O           -2.29006908780969        1.19056386163284       -0.80371319033296
C           -2.92032150465717        0.00599134477885       -1.27258137228126
C           -3.69142075615390        0.37326982874384       -2.54161795425684
O           -4.76647244641904        1.22031311791751       -2.20797154806705
C           -3.85479901406613       -0.60580031622168       -0.22172103932532
O           -4.27885355105498       -1.85881996062247       -0.70009103493628
C           -3.14160653165483       -0.75504634862244        1.13316993702644
O           -4.02387867890110       -1.28145460811137        2.09229200089340
C           -2.53422451060534        0.59299479926745        1.52732415953646
O           -1.87554671213350        0.46590877642076        2.75746584365010
C            1.33823650940962        1.18968610855953        1.32436293114072
O            0.73533543274878        2.43961466605138        1.56068813316172
C            2.85261127877447        1.36279083603201        1.17627101006836
O            3.33640624626705        1.89756931732675        2.37940014143478
H            5.30857409486234       -1.46625950947158       -0.42690017397161
H            5.48086403811975       -1.65434729690901        1.34184783710336
H            6.64693623178610       -0.64670532262078        0.43047438899855
H            3.28571655936196       -0.71479141272368        1.65998349033308
H            1.35473313089486       -1.47478278220780        0.47576521001240
H            1.82373757390601       -2.10500459015811       -1.90258331012826
H            0.11945692889466       -1.65380431152886       -1.56933202407717
H            1.17654828958887       -0.65972586064620       -3.51125623934628
H            0.78381810527908        1.25344884696999       -0.77151788592102
H           -1.15732165321162        2.01735208470365        0.60776335956468
H           -2.15558310825165       -0.74213866124739       -1.52312779905122
H           -2.99604649806062        0.87556106350897       -3.22242654834174
H           -4.05591800580357       -0.55900397380004       -2.98928924558638
H           -5.19272484938662        1.52118578637985       -3.02292526369903
H           -4.71906515314659        0.06688059524379       -0.09890861116211
H           -4.67188245459914       -2.34379265661844        0.04353490305567
H           -2.33188929182332       -1.48647096794079        1.04246022034719
H           -4.63027015290294       -0.59053445249834        2.39727904193446
H           -3.33834087861941        1.34460127584989        1.58406049030291
H           -1.54054910540791        1.33135594939722        3.03302541066639
H            1.14009697092000        0.51880530737659        2.17644732537352
H            1.29865929847463        2.91956010063860        2.19112688771600
H            3.05792611971967        2.03924353914354        0.33291415680159
H            4.30166677318941        1.96653774971650        2.32865099173858
