48
 energy: -84.744604438024 gnorm: 0.000786017842 xtb: 6.7.1 (edcfbbe)
C            5.54102408553193       -1.18030046672416        0.54349423394359
O            4.84508790925644        0.03596680503078        0.81002344437354
C            3.46984797921205       -0.09620564517534        0.88588225469885
O            2.96097191147377       -0.47264336924148       -0.37236487593005
C            1.56825172850197       -0.68206242352038       -0.35594632983331
C            1.17126292520748       -1.18629510176275       -1.74392206000759
O            1.47301605727520       -2.55770166202560       -1.82638390895958
C            0.78687869278408        0.58967150656337        0.02660164022832
O           -0.54620862464512        0.14535957713879        0.21684246339536
C           -1.53736057617989        1.13781941949472        0.36248601459435
O           -2.23643288778844        1.34507535598717       -0.83017528229909
C           -2.89261301255254        0.18480911809876       -1.34292109904186
C           -3.46970141953207        0.60671813268642       -2.69303506661675
O           -4.25339347559378       -0.61752553744131       -3.24424938057659
C           -3.91483806435945       -0.32662282913479       -0.29014017956041
O           -4.50034572438697       -1.52033368496042       -0.77221044505894
C           -3.21773405265384       -0.57242443712836        1.04887716567459
O           -4.12052333710728       -1.03121894381025        2.03415288998704
C           -2.49473525946339        0.70015569252652        1.48816357733851
O           -1.76667626477466        0.51967489858472        2.67247884339178
C            1.36058373851032        1.22277243494607        1.30697514996856
O            0.86169283913523        2.53306009338580        1.43827538065358
C            2.89433906687744        1.26801863728034        1.28055944063935
O            3.32193296962976        1.67029298619749        2.55508234747980
H            5.21939968697516       -1.60093383293061       -0.40971655006853
H            5.35955496421191       -1.90167388171456        1.34492133494600
H            6.59142729619050       -0.90780058907537        0.50708227110973
H            3.18428380968947       -0.86093905858851        1.64023611210844
H            1.31764914829457       -1.45835452461779        0.38415007303490
H            1.73656282450996       -0.60826782472880       -2.48257242856541
H            0.09780012254913       -1.01105807869613       -1.87841795487215
H            1.35002831496680       -2.85662339356859       -2.73930814700720
H            0.82895681763500        1.33057001975627       -0.78314130513865
H           -1.08962792988247        2.10285204082570        0.61374308323894
H           -2.14560445707059       -0.61681184636965       -1.47319939836572
H           -4.29020205931090        1.32130455010128       -2.47349428909230
H           -4.58529016108143       -1.17480906059710       -2.49435452596885
H           -3.61527982285167       -1.13010468310095       -3.77731798421938
H           -4.69293947896641        0.44509805504027       -0.15422109437477
H           -4.93532969367483       -1.98373271673607       -0.03957441834029
H           -2.47796217448675       -1.37148924701030        0.92818702937069
H           -4.77726510435598       -0.34264134479786        2.21968151132782
H           -3.23282416130723        1.51171837710454        1.61823612082472
H           -2.25215963338789       -0.10236938190055        3.23986537907225
H            1.03738326904195        0.61180201421464        2.16401094005862
H            1.27592582939786        2.93434399627520        2.21948314203616
H            3.21172400493594        1.98908741028890        0.51209384782234
H            4.29083838378065        1.69247244597645        2.57062804589322
