48
 energy: -84.751638427745 gnorm: 0.000541134499 xtb: 6.7.1 (edcfbbe)
C            5.57084065305385       -1.07202440167236        0.39758475209172
O            4.83059096843483        0.13324419022958        0.58130584156249
C            3.46979135582787       -0.05625602864096        0.76434628944878
O            2.88636930054758       -0.48944050843515       -0.43375852538525
C            1.49674940753569       -0.77816167883394       -0.31247120939513
C            1.07368324130618       -1.45467294692271       -1.59598848579930
O            1.36708941359632       -0.34701513529145       -2.72311701333063
C            0.71696171473515        0.50996154426742        0.09631552198379
O           -0.61017539550107        0.06466113395688        0.33841654373534
C           -1.59561299234409        1.04767752780015        0.51112150433255
O           -2.33636608302817        1.23666986886675       -0.66897241700536
C           -2.99397425834451        0.06286211903926       -1.13827684984591
C           -3.74934643147389        0.46336291766669       -2.41127248541247
O           -4.64124821193522        1.52340689239612       -2.18873149512355
C           -3.94560438828268       -0.51297910373453       -0.08351623176149
O           -4.43319661750093       -1.73450586484491       -0.57403765775077
C           -3.20544247403874       -0.70327858375835        1.24625792427989
O           -4.14491934392667       -1.13144913232857        2.20205696485339
C           -2.54103371874968        0.61541483430111        1.64964693700540
O           -1.87188156019439        0.41646919855916        2.86745128320858
C            1.34748351344926        1.13370935824976        1.35103735478539
O            0.77451948931906        2.39307938888264        1.62907903726453
C            2.86027079615216        1.28884049304234        1.17192558537557
O            3.38322697192384        1.76663469136792        2.38400624811666
H            5.20216746066987       -1.61923482322527       -0.47020819429733
H            5.49082418202368       -1.70177286756581        1.28824449749431
H            6.59931333493982       -0.75890125528384        0.24556648251519
H            3.27865467022126       -0.80685514629225        1.56147227696026
H            1.33452525594148       -1.50619997107174        0.49847053893428
H            2.32026291465465       -0.17311454891398       -2.58029362611282
H           -0.03163360218514       -1.47575118675027       -1.58393166078019
H            1.27497358592702       -0.84259107908318       -3.56400899621131
H            0.72341414088881        1.24770295458415       -0.71784627320798
H           -1.14917841462775        2.02341889622187        0.72688303609539
H           -2.25301202723720       -0.71113727017099       -1.37879352463743
H           -3.01929484125728        0.73075738110130       -3.18433375331698
H           -4.34400601216050       -0.38835710306582       -2.74357309590439
H           -4.13353710553047        2.27232429926090       -1.84301736413043
H           -4.77491132684046        0.19377696604548        0.07841530002850
H           -4.96928326540576       -2.14447091491849        0.12204923248884
H           -2.41585746693740       -1.45825771185120        1.11400972166322
H           -3.70711449039289       -1.17185173654143        3.06507208609040
H           -3.32089661621936        1.38503450128446        1.75081604764133
H           -1.53533574570617        1.26273540538620        3.19356198354911
H            1.16339377065020        0.45066321277224        2.19664721125457
H            1.35466018857298        2.84194042098505        2.26632416297377
H            3.05522558134616        2.00338820628519        0.35733152926746
H            4.34862248498204        1.81053161861119        2.31323896520841
