48
 energy: -84.847032908303 gnorm: 0.000301224679 xtb: 6.7.1 (edcfbbe)
C            5.87604415856004       -0.53144023368961        0.12827427919726
O            4.93143186958906        0.50011343922424        0.39906216483548
C            3.67296652686026        0.05739998797702        0.75083191608511
O            3.04522614253240       -0.47921624702470       -0.39798422553325
C            1.68872632228084       -0.83505169006286       -0.21698935393359
C            1.21070394571137       -1.47353543184185       -1.52833708423334
O            1.73961073422017       -2.75500397774746       -1.72873273997400
C            0.85367226676982        0.40486685526721        0.14334347579000
O           -0.49926958104187        0.00043890250076        0.26622941765596
C           -1.44783115184341        1.05140694155591        0.35996974847840
O           -2.08200694598210        1.27991603665707       -0.86275227787011
C           -2.89407480189628        0.20345762270945       -1.32108095934159
C           -3.55836913178177        0.64868106208030       -2.63150768759547
O           -2.68144858682728        0.68520118645086       -3.72533462957924
C           -3.95482487181681       -0.16496699063651       -0.27215872270215
O           -4.68885767736013       -1.26193033633674       -0.75964964930516
C           -3.26128597719549       -0.50639701021240        1.06505376789449
O           -4.19985640091334       -0.79556039984053        2.07484821359377
C           -2.42669337206873        0.69997544070025        1.49642227653750
O           -1.70934624667587        0.49699347061494        2.68646219791969
C            1.41605423382368        0.90523230796932        1.49532273850295
O            0.78089653899340        2.04660387179289        2.02432379609955
C            2.90287230590431        1.25280301124331        1.32618372987807
O            3.48260317140643        1.56036695665396        2.56356271544498
H            5.58969484480862       -1.08963447857246       -0.76411891466981
H            5.95417399910505       -1.20845897852676        0.98333540396744
H            6.82029250606295       -0.02007642445481       -0.03370977522098
H            3.73259129544697       -0.72823439431852        1.53364122736043
H            1.59842930761767       -1.57315280258966        0.59401820816977
H            1.47018483815802       -0.80144978650824       -2.35387949378564
H            0.12801712311828       -1.59217756770377       -1.47813597838678
H            2.70174109661289       -2.68855344526608       -1.80481873281063
H            0.95819051083280        1.17480646744486       -0.62916737701785
H           -0.94772454438008        2.00033243903770        0.57643268137935
H           -2.26384528839147       -0.67943592545901       -1.50286979360356
H           -3.91648764254186        1.67174903360844       -2.50240503885641
H           -4.40459262630002       -0.01891751084846       -2.82774244506748
H           -2.41340967229487       -0.21562773224418       -3.95521367002640
H           -4.60635794909876        0.70498589979563       -0.11321866691452
H           -5.52338952863406       -1.33231362231754       -0.27361833909524
H           -2.58526549002752       -1.35684439030463        0.89812843270381
H           -4.50343304451609       -1.70982517212319        1.98622030176611
H           -3.08874742478061        1.55138153094935        1.68017260954511
H           -1.36222091204257       -0.40724107401590        2.69610667040707
H            1.34361627701757        0.07720233242920        2.21373739563369
H            0.00269818339484        1.77562876229779        2.54267155489411
H            3.00442339651317        2.09338010379249        0.62540998943744
H            2.98945228871927        2.30159298634187        2.95146167164380
