48
 energy: -84.741660032076 gnorm: 0.000400782906 xtb: 6.7.1 (edcfbbe)
C            5.55498502916425       -1.22610702220442        0.50234696510962
O            4.85267676324858        0.00852867972125        0.62592551764429
C            3.48811662119334       -0.13254613422667        0.80763982666953
O            2.91424525517413       -0.50840749138878       -0.41613383331884
C            1.51541407083392       -0.75393947931515       -0.34325051764256
C            1.11127119583838       -1.40048359868042       -1.64964502194551
O            1.55820618757558       -0.31948786660636       -2.74883569979591
C            0.77360337241580        0.56247210048964        0.04201528550325
O           -0.57505251410015        0.15366838409174        0.25562739436011
C           -1.54521183872486        1.15991804373333        0.41082453899017
O           -2.25230004200222        1.38130831100144       -0.78096082781577
C           -2.93732281110158        0.24401221107253       -1.28649943369240
C           -3.64534493488523        0.66505493111159       -2.57423728455119
O           -4.66807254720955        1.58322453307089       -2.26778365277139
C           -3.93513996836605       -0.31304913421654       -0.26538223921928
O           -4.47073809174375       -1.50398226473937       -0.78558662295881
C           -3.22041925465023       -0.56836011820317        1.07047939725539
O           -4.10981748462504       -1.08578200563020        2.02976257486153
C           -2.51850857079163        0.71441424270422        1.52833132529942
O           -1.87346054758107        0.56439130455986        2.76274368594172
C            1.38855558929452        1.22004788701259        1.28695729069651
O            0.93844138100382        2.54449730986200        1.49603930237247
C            2.92781040211185        1.21718520271631        1.26894026985777
O            3.43524786669752        1.48082609845172        2.54967005939670
H            5.15040754687826       -1.81684849332074       -0.32097252870275
H            5.48405610716842       -1.79470145656471        1.43386765996131
H            6.58701964297079       -0.95154421122797        0.30631836992638
H            3.26359758477328       -0.89804742767123        1.57883109749241
H            1.30291958247205       -1.48108754367155        0.45637952111922
H            2.50021438715185       -0.18978214177677       -2.51136918381974
H            0.00838514613646       -1.33428252971479       -1.70239554669079
H            1.52269300194660       -0.81814262271753       -3.59177628109268
H            0.81126431028669        1.26874727398263       -0.80130699822135
H           -1.09600027902356        2.12023949795151        0.67496399705149
H           -2.21365742816480       -0.54971087427963       -1.52237563565980
H           -2.90129786619608        1.11973417279772       -3.23798825708619
H           -4.05655612939852       -0.24242772642487       -3.03127742814218
H           -5.09805812001700        1.85825551468134       -3.09012125661033
H           -4.73139500539344        0.43403255275802       -0.11785535065468
H           -4.90220736601797       -1.98363055129013       -0.06055365031010
H           -2.46604845261629       -1.35042519267008        0.91642415211227
H           -4.67582595083088       -0.37773706642687        2.37058462127001
H           -3.25210065583337        1.51636967491941        1.66730086310086
H           -1.31536013144570       -0.22552857727191        2.72940648998867
H            1.05281939653712        0.66447419806852        2.16995242664554
H            1.26738959292068        3.11554879893211        0.78418488150193
H            3.29003389003503        1.97131979064679        0.55071071921312
H            2.99545808743510        2.27141984942139        2.90194709150432
