48
 energy: -84.852719691313 gnorm: 0.000620433464 xtb: 6.7.1 (edcfbbe)
C            5.56213740974039       -1.17686299924355        0.68787644414532
O            4.89291348508018        0.07809052332538        0.77655279263368
C            3.51917607640937       -0.01648469361975        0.87171617925930
O            3.00978912910274       -0.44927648768185       -0.37212888896806
C            1.61641247144247       -0.64996216179608       -0.36364021452205
C            1.22226904131038       -1.17482011047472       -1.74892006822003
O            1.27571615703646       -0.12871100706286       -2.68893224724630
C            0.82881620918321        0.62616291090417       -0.01670031005852
O           -0.48265454441481        0.15261461312587        0.26972175600754
C           -1.49429633138006        1.11608448603624        0.41675887116545
O           -2.25895706960252        1.23456888251882       -0.75422601990125
C           -2.90139524247087        0.02790830658971       -1.14541486526031
C           -3.66828010862365        0.34558671199980       -2.43873142192582
O           -4.28382447291381       -0.79185184618436       -2.99109721592536
C           -3.84310643180745       -0.48444540283641       -0.04301575189437
O           -4.38288404807124       -1.74461530630959       -0.35572309828210
C           -3.06908501876448       -0.62701519882181        1.27322287897984
O           -3.92061759418544       -0.95147488813808        2.34565741172033
C           -2.38374021835656        0.70145090495865        1.60256164273803
O           -1.58372045402215        0.61689829570265        2.74859809882551
C            1.42570451742837        1.38252858132597        1.18367481573498
O            0.97803415188897        2.71916319414406        1.24718519212904
C            2.96432516394704        1.36832117460993        1.21396389618505
O            3.43541811316658        1.72553792540758        2.48510740944309
H            5.24541090228812       -1.71571957023065       -0.20660865796548
H            5.35635158691632       -1.77873208698165        1.57765007955507
H            6.61920034980620       -0.93544292023844        0.63209833702792
H            3.22027644986242       -0.73631029625355        1.66254511334413
H            1.35681991999270       -1.40586355115587        0.39495829178668
H            1.92011283077526       -1.97657828681139       -2.00437143148872
H            0.20315891032812       -1.57633734972548       -1.68105608207904
H            1.39704144780969       -0.49448866560026       -3.57644213669734
H            0.80968519497558        1.28421123174342       -0.89650937096342
H           -1.07951819567939        2.10919091325725        0.60604324805911
H           -2.14153607221946       -0.74623347488765       -1.33093214464305
H           -4.46712125359548        1.05393428725977       -2.20730658638082
H           -2.97919955825848        0.82248919774792       -3.14124583947627
H           -3.62321687983793       -1.33457162538866       -3.44453112388778
H           -4.64799812834127        0.25349036536653        0.10961965532182
H           -4.77711890021254       -1.69648323204968       -1.24564951391077
H           -2.29648909049243       -1.40099173833157        1.15045677801701
H           -4.44949160463937       -1.72226537821515        2.09035548630786
H           -3.16046855220238        1.47199036302056        1.73042146853326
H           -2.11768616100035        0.21483196784319        3.45243334236094
H            1.04555155408321        0.91004947808536        2.09756542736094
H            1.31798363559522        3.21267707987743        0.48391123831042
H            3.35578195442688        2.05755531743565        0.44810024034878
H            2.99155728065034        2.54361559186063        2.76239476674245
