48
 energy: -84.859148429408 gnorm: 0.000594636513 xtb: 6.7.1 (edcfbbe)
C            5.43546030522357       -1.23725584566892        0.71097440777834
O            4.79918159460089        0.03159839236296        0.84641529617049
C            3.41792574182530       -0.01892907415611        0.88929572723611
O            2.92343516637590       -0.45420889240575       -0.35915362033271
C            1.52216799938717       -0.60721931677962       -0.37809742251186
C            1.18899297266187       -1.12840997425534       -1.78108655163169
O           -0.09469261853538       -1.70023121218305       -1.80564511306625
C            0.76517770500409        0.68849124073364       -0.02283666413675
O           -0.55408975938896        0.25582598600779        0.25775205374170
C           -1.54625287027398        1.24013152548782        0.40753396729505
O           -2.30914952800326        1.37983331348394       -0.75945134599838
C           -2.94067421674502        0.16721898231780       -1.18032834094337
C           -3.74139622396513        0.50573170268912       -2.44313715213090
O           -2.92227147914111        0.87813922561635       -3.51947831025589
C           -3.86141914915242       -0.38917325906513       -0.08360972567559
O           -4.43805281149977       -1.61825478591589       -0.44502892808841
C           -3.09422088455520       -0.51601736684138        1.24099767792533
O           -3.95153382335515       -0.87816742917190        2.29950156052568
C           -2.44688148079758        0.82737630064856        1.58389958911781
O           -1.66846175186564        0.76374999702938        2.74706705025267
C            1.37469680104943        1.40964409446486        1.19481613449053
O            0.91760141829033        2.74215150341536        1.19557236716325
C            2.90765643141232        1.39691226969219        1.17073510603108
O            3.35253318605651        1.88025903727078        2.41001856166504
H            5.14490231794760       -1.71051186903103       -0.22754489181651
H            5.16906293067737       -1.88457232537274        1.55103382850485
H            6.50078029970688       -1.02704720473255        0.71662986681480
H            3.06835766224615       -0.71293673457157        1.68299414777358
H            1.21223236944487       -1.36120882796390        0.36306115623501
H            1.26645969599503       -0.29890030341066       -2.49489400817255
H            1.95686184824760       -1.87278907491037       -2.02289075262954
H           -0.19958399123125       -2.16575222170241       -2.64907417389819
H            0.77200838492536        1.38754471284236       -0.87014808965157
H           -1.10700731112548        2.22333968251913        0.59745947544039
H           -2.15808420009233       -0.57091920801136       -1.40962152174718
H           -4.44798783311041        1.30861641675415       -2.19817715179191
H           -4.29710195238913       -0.37649475087087       -2.76398072050865
H           -2.42061681449792        1.66207869127588       -3.25570719700228
H           -4.70342878450652        0.29715948489636        0.06685336866386
H           -3.73726228341749       -2.25172500477401       -0.66293698046444
H           -2.29085100735276       -1.26149868423393        1.12874737982400
H           -4.56279094590848       -1.55983682762047        1.97996538840439
H           -3.23815935561833        1.58594710028625        1.69174443368910
H           -2.20575148657738        0.34460023553731        3.43833578847378
H            1.02995786491677        0.89351803213560        2.10395649443851
H            1.31918651282549        3.19826432210004        1.95204724494340
H            3.25689159580979        2.03990989176422        0.34861063527908
H            4.32105176156405        1.85030704872998        2.42986495560124
