48
 energy: -84.743339673209 gnorm: 0.000349273529 xtb: 6.7.1 (edcfbbe)
C            5.56056796369491       -1.13560801763523        0.61372583876595
O            4.84772295800383        0.09048761912825        0.75998891247324
C            3.47901106874570       -0.05005787807544        0.86051480566783
O            2.96264501052651       -0.48587557562573       -0.38027635099201
C            1.56778573708460       -0.70357866803005       -0.38066602230732
C            1.20866393922365       -1.15080667425137       -1.80667449527433
O            1.57636891684727       -0.19492303798848       -2.76103994198391
C            0.75618253689925        0.54490505852944        0.01165098311278
O           -0.55781192411994        0.05585190416386        0.23526709575374
C           -1.57808631962106        1.01724170625240        0.39239472988853
O           -2.31492268745247        1.18997402365783       -0.77937809154507
C           -2.95799421431869       -0.00024070545707       -1.26725549965267
C           -3.57568582121772        0.34270049773238       -2.60551097011766
O           -4.57367635832745        1.56379515318311       -2.24972672508536
C           -3.91104514621133       -0.55152531438667       -0.17713525990430
O           -4.44349626927059       -1.77171838507478       -0.63474132922194
C           -3.16060023724110       -0.74792258051793        1.14405837714866
O           -4.08815793587499       -1.18477535563579        2.11286094404037
C           -2.49717801887459        0.56854200783379        1.54560664785748
O           -1.79568302320414        0.37243318578467        2.74708796844523
C            1.33492359378317        1.16373064881006        1.29754744590005
O            0.75636656614217        2.42178396415141        1.55701238170298
C            2.86275978874643        1.30877429191602        1.20996551806347
O            3.36293187344831        1.87438433650089        2.38936584868952
H            5.26739746619476       -1.64424863553962       -0.30540445132817
H            5.37345600078226       -1.78800726670457        1.47167131809148
H            6.60864485664684       -0.85502146050240        0.57460932275489
H            3.21193120789998       -0.80059862418048        1.63842451082177
H            1.30628223632909       -1.49950630066925        0.33291055787947
H            1.69742984331609       -2.11152817791406       -2.00851945294183
H            0.12675509543035       -1.27034657404885       -1.88020837229285
H            2.53213620669378       -0.04952840377225       -2.69270075360514
H            0.76306347329068        1.28089483690507       -0.80165931206371
H           -1.14933569495006        2.00173838607042        0.60985309343520
H           -2.20435885184417       -0.77856368147028       -1.45694832742825
H           -3.93899270398820        2.20901585295988       -1.87758187816909
H           -4.29305608910133       -0.47290568302467       -2.81991612099351
H           -4.85842526766778        1.88642398057009       -3.12922140189304
H           -4.72662178981889        0.17079535034456       -0.00311080705056
H           -4.94403119214313       -2.16702900091282        0.09484961992010
H           -2.37242435249212       -1.50238131418117        0.99943455521767
H           -3.63956602500986       -1.21798659082665        2.97054518496964
H           -3.28127386467133        1.33018720236329        1.67387905300990
H           -1.42099846184796        1.21667257141609        3.03647221355056
H            1.08665659459042        0.47461801996553        2.12465435609415
H            1.39850063383423        2.94544427282676        2.06830413964738
H            3.12106814852242        2.00970816585136        0.40922027617688
H            3.37451053660291        1.22127587164562        3.10488085835833
