48
 energy: -84.853826716299 gnorm: 0.000959225386 xtb: 6.7.1 (edcfbbe)
C            5.63703643602907       -0.93286821968245        0.48536698539792
O            4.86553836993102        0.23083599200675        0.77428528356287
C            3.50714838603679        0.00448002503358        0.90613856752913
O            2.97896926114172       -0.42973779196357       -0.32615716010997
C            1.58732159025851       -0.65481070440911       -0.30240060137791
C            1.19568330583674       -1.12888617304682       -1.70633253023136
O            1.34643498787588       -0.07190566655134       -2.62217877723477
C            0.78262968193693        0.59492461353560        0.10315457202644
O           -0.55525458372699        0.14322395971282        0.24271901935045
C           -1.54769378858773        1.13422213053913        0.39319532347016
O           -2.22581101820668        1.38968860291585       -0.80659129181302
C           -2.92011515700542        0.27393653761055       -1.35278932265803
C           -3.67909091932061        0.76077166294489       -2.59606896738725
O           -2.86771423033122        0.96819473975348       -3.72002945642730
C           -3.90575514058755       -0.33607192849474       -0.34442622712330
O           -4.42577882401015       -1.51097117786154       -0.90981267966025
C           -3.20417382077248       -0.61968593250969        0.98875492217992
O           -4.17576167785853       -1.08954115745704        1.89150453459421
C           -2.53563608408701        0.66590987655680        1.47861628924995
O           -1.90437384732186        0.39813135744887        2.70245372776930
C            1.34016466680451        1.13940149897619        1.42962377777824
O            0.72715030778427        2.35791611785990        1.77699630514315
C            2.85537569416614        1.32847495883684        1.31777996726881
O            3.31580616998593        1.77919246417566        2.56387161766537
H            5.33790566973137       -1.35924113748738       -0.47245185622682
H            5.51099217445267       -1.67569375113196        1.27782495803682
H            6.66717980932948       -0.59183574214873        0.44486752652795
H            3.30777607025494       -0.76916862527692        1.68023299926864
H            1.34818901677012       -1.44648071412324        0.42549981233109
H            1.83872952475868       -1.97513089787694       -1.95820154560353
H            0.14927884059852       -1.45689336610232       -1.67153928286037
H            1.64323317984107       -0.41552686099448       -3.47622061786499
H            0.85235807265212        1.36026038028650       -0.67896327513425
H           -1.09988402146967        2.09371402485484        0.66898058951942
H           -2.19509776993867       -0.50401061656866       -1.63226077739343
H           -4.12168097006504        1.73123341294857       -2.36372003480472
H           -4.47125178852683        0.03457561396851       -2.81060558047993
H           -2.53351603259084        0.11679279780275       -4.03505499363322
H           -4.71658086380003        0.38501718494201       -0.15165917841355
H           -4.95395966349789       -1.96215078409198       -0.23281381914339
H           -2.42063799765832       -1.37685882224595        0.83768105520929
H           -3.77171629089384       -1.14601149718967        2.77015964788752
H           -3.30498932380232        1.44460182663801        1.59543375522296
H           -1.46385773757354        1.20085435276147        3.01592739254894
H            1.13654213618344        0.39275806745324        2.21534011380699
H            1.29452713568618        2.78917170538793        2.43828319095087
H            3.07202734626092        2.06228436258934        0.52716015528355
H            4.28017672388155        1.86889430133900        2.53258489604542
