48
 energy: -84.629152872277 gnorm: 0.000357758698 xtb: 6.7.1 (edcfbbe)
C            5.57919553463786       -1.04459670287879        0.36260210068608
O            4.78560841136560        0.13453357139500        0.43110041634461
C            3.45069140770600       -0.08771756494640        0.73796333886221
O            2.80764889319113       -0.59012877688575       -0.39647534375397
C            1.39258784673990       -0.87801803474153       -0.19835149721815
C            0.82359251659704       -1.64799582356592       -1.35814150473920
O            1.29129169735110       -0.95797840533778       -2.65393747741897
C            0.65413511320006        0.44504756576527        0.10091571559820
O           -0.68349402737827        0.05367523541465        0.36497982748291
C           -1.65513776177349        1.06989321989620        0.46388442811864
O           -2.38082336071731        1.21334086976238       -0.71805868168788
C           -3.05197586385812        0.02527248195476       -1.17870457338410
C           -3.56678214583394        0.32522745251204       -2.56818024874005
O           -4.53864407965195        1.60089690830464       -2.34104335942611
C           -4.08398599133066       -0.38196321270098       -0.09974536432782
O           -4.74306840931646       -1.56115352620547       -0.50055159860229
C           -3.35725346141550       -0.59313210805162        1.23532746579485
O           -4.24804571247278       -1.03584650744496        2.23867844729159
C           -2.60235181914748        0.68110272936562        1.62798368516635
O           -1.90751307733880        0.54236012423805        2.83891464683496
C            1.30929133950774        1.18274315425196        1.28260264146105
O            0.81405159414875        2.49281383623269        1.46797253803557
C            2.84171594717581        1.25394935699510        1.15714864922686
O            3.42038701608708        1.62390675757110        2.38008915628375
H            5.17517814665943       -1.74098978022288       -0.37493234679647
H            5.62023970687933       -1.53048722934216        1.34180533738182
H            6.56883631081578       -0.70984582071996        0.06622384699236
H            3.35110987267172       -0.80604662730334        1.57854828507240
H            1.28133648270401       -1.51436906391348        0.69168757169168
H            1.38087373949324       -2.60193253421897       -1.40379009688333
H            2.15782429888086       -0.52275623515157       -2.50968584631198
H            0.60549668830206       -0.30969283529954       -2.90770894392251
H            0.67379661419531        1.10395874620260       -0.78017721191396
H           -1.20648291846891        2.04493163050389        0.67047510398383
H           -2.32910213298346       -0.79682545493093       -1.27322830613766
H           -3.90999246787344        2.23632154119460       -1.94291672174505
H           -4.29957273672993       -0.47156910401635       -2.79559053661206
H           -4.73767335598021        1.89662895322580       -3.25229917439431
H           -4.82636670584152        0.42846488998191        0.01808552373429
H           -5.07874962911556       -1.99983233405284        0.29650025928806
H           -2.63303352325078       -1.40723927038962        1.10635442736249
H           -4.77491411514501       -0.28993550066709        2.56059780765138
H           -3.30951954808120        1.50309726669864        1.78760527525290
H           -1.32161804906424       -0.22392547239042        2.76400959851946
H            1.05964135397093        0.64949583357023        2.20678165565177
H            1.08036113421815        3.04970824502523        0.71880753107935
H            3.11307683535120        1.97867044307544        0.37127972443076
H            2.96206038982203        2.41229911789951        2.71458983854330
