48
 energy: -84.836572976471 gnorm: 0.000973036468 xtb: 6.7.1 (edcfbbe)
C            5.51838399268307       -1.26072088850678        0.82007516125615
O            4.87302516509223       -0.01366398504143        1.06868883587467
C            3.49385712926744       -0.07310539998601        1.07681336050753
O            3.03416716153345       -0.35998953511830       -0.22777867673501
C            1.63242077851021       -0.49998383207727       -0.30435789226703
C            1.29250463034980       -0.86685773867273       -1.75563182774997
O            1.66656474010270        0.13226856208825       -2.66464536816557
C            0.88342262253593        0.77326267452059        0.12531567495334
O           -0.46907204202780        0.35608169616934        0.22067866838611
C           -1.44371165360408        1.35724101656579        0.38876576136672
O           -2.07150425842959        1.66097144674752       -0.82690397861612
C           -2.80395704745120        0.59947105617096       -1.39050746716905
C           -4.28435633614138        0.47527455685364       -1.10814150192833
O           -4.45391457816419       -1.89269787968818       -3.53308633023936
C           -3.32028419236969       -0.52874457849435       -0.54275196725993
O           -3.29864348568503       -1.83741414426005       -1.01640102931235
C           -3.00759715959085       -0.51771880664957        0.94505842857176
O           -4.13869269447863       -0.81619556616774        1.73484659573587
C           -2.47575231842041        0.84433787707498        1.40549589801580
O           -1.86327660058610        0.76002127309092        2.66371548595135
C            1.41115523848076        1.31123484100778        1.46449729212422
O            0.96377158951486        2.63576618377228        1.63798781799934
C            2.95045845864667        1.28766959451142        1.53081892019745
O            3.39002298465148        1.65656281380358        2.80896037479512
H            5.24120552344131       -1.64706154008583       -0.16148332343596
H            5.25071848042280       -1.98740503357889        1.59251609108513
H            6.58178240771055       -1.04493681424588        0.85679537366814
H            3.13307022970501       -0.87368514150296        1.76144428425983
H            1.29797470683564       -1.31292211035005        0.35844176649055
H            1.78382006111384       -1.81625832474885       -1.99963456652430
H            0.21071722909310       -0.98155086130715       -1.83521559095201
H            2.62130883265679        0.27528670922653       -2.58407133035177
H            0.98979297862371        1.55374657346610       -0.64038918217329
H           -1.00050338574588        2.29194074579252        0.74149462662767
H           -2.45581092977607        0.37251536515566       -2.39128369592222
H           -4.73289668208403        1.18486888095317       -0.43282089402560
H           -3.88245666232062       -2.08095295220528       -4.28572318738887
H           -5.19884780826183       -2.50096914580981       -3.59256608268926
H           -4.91017119439866        0.16571286534928       -1.93010693752415
H           -3.68546334838622       -1.86789677210767       -1.92066908349470
H           -2.21440678862367       -1.26249365960058        1.11207614805439
H           -4.50915383084942       -1.66173971593710        1.44385609511846
H           -3.30720964961463        1.56439576691312        1.43307524496268
H           -2.50184526335688        0.36793089991425        3.28038925198248
H            0.99639695698177        0.67340488560106        2.26336120121279
H            1.43563794057709        3.02056435905825        2.39519556099411
H            3.34974743695699        2.04691542629620        0.84992990292836
H            3.21187063077600        0.94797029382254        3.44530895730600
