48
 energy: -84.832335575635 gnorm: 0.000318247201 xtb: 6.7.1 (edcfbbe)
C            5.64435387737790       -1.15888953140431        0.71549177220234
O            4.98277702409453        0.09924116243060        0.82690843459042
C            3.60829177961952        0.01853136327032        0.92408220346279
O            3.08132466858729       -0.44487118368762       -0.30229542051444
C            1.68121315605029       -0.61815848250390       -0.27584696638320
C            1.26878967382436       -1.17096437572718       -1.64775026413629
O            1.57258315809361       -0.28846762759462       -2.69333577501895
C            0.92727742642384        0.68654112602704        0.03402601151142
O           -0.40845351715193        0.26545087011834        0.25986686819004
C           -1.39038381868325        1.26737013068481        0.35687941657224
O           -2.09364772393290        1.41051389905584       -0.84880673433594
C           -2.83388871340687        0.28196637338441       -1.23816679647933
C           -4.29070217617887        0.18150213469456       -0.86152208266640
O           -6.28458751119292       -0.77230507682990       -3.39076586753793
C           -3.27352947258473       -0.74071252395471       -0.23514772824932
O           -3.22310784283557       -2.06442068560942       -0.66832152056376
C           -2.88506618818925       -0.54800410501981        1.22311189776974
O           -3.92786101863704       -0.87899517970474        2.11523591449952
C           -2.35863125167503        0.87261894400339        1.48521571910638
O           -1.68355408488783        0.95187133609775        2.71207780939947
C            1.51773425877847        1.39992942585367        1.26027255430819
O            1.04265207603160        2.72548312992141        1.29813881657718
C            3.05791584267343        1.41762504772258        1.22766363103825
O            3.56551319248855        1.96490002860154        2.41330531467286
H            5.32945975875042       -1.67965359985508       -0.18963829954169
H            5.43137065282560       -1.77850451453180        1.59131881819488
H            6.70297053196089       -0.92246580009879        0.66874066871963
H            3.30629198012126       -0.69094298905426        1.72722204125115
H            1.40650101192857       -1.34722074646523        0.50190744465345
H            1.76558058796344       -2.13679266774280       -1.79834689089749
H            0.18677184914439       -1.31159148726428       -1.65288260335237
H            2.52878331433578       -0.13222439790381       -2.69178729910718
H            0.97242185655741        1.36377188722907       -0.82960333696693
H           -0.94728289968015        2.24472770267087        0.56413173372225
H           -2.52898700440566       -0.08434557696722       -2.21093545988548
H           -4.69685601480915        0.98242179251897       -0.26524802521374
H           -6.62152870332565       -0.07890263780695       -3.96699912156803
H           -6.16698150826217       -1.55663035814956       -3.93624415100025
H           -4.96482346312385       -0.22737110948747       -1.59842488342518
H           -3.90993370597884       -2.58101125554404       -0.21807197757349
H           -2.07168486003459       -1.24810218995960        1.44667904931833
H           -4.72514492525419       -0.37690523857428        1.88783230775892
H           -3.19209696897940        1.59384537412566        1.46688268618148
H           -2.22369653901884        0.50700690774857        3.38585087103931
H            1.17320282757156        0.85855045410025        2.15761021308788
H            1.55670454579211        3.21555222729294        1.96138258965739
H            3.39135520582072        2.08569999758648        0.42638943316699
H            3.45941966773512        1.34167000883812        3.14771168315108
