48
 energy: -84.856956476929 gnorm: 0.000236335144 xtb: 6.7.1 (edcfbbe)
C            5.57467399056462       -1.11127595572168        0.42282399196907
O            4.85492476883613        0.09625496365796        0.66157142781963
C            3.49267831916367       -0.06933840684265        0.82591040159452
O            2.91864589657416       -0.51172373441033       -0.38689716608876
C            1.52961992172283       -0.72583761465969       -0.28684493219887
C            1.06651661297504       -1.29425899519372       -1.64333371226497
O           -0.12993415651055       -2.01642479667868       -1.56599615391921
C            0.76659941277402        0.55825747235443        0.09134812288773
O           -0.57003464170174        0.13431340542443        0.29265938739827
C           -1.55712325992390        1.13015567894296        0.43740459579799
O           -2.26161732378308        1.34013208200969       -0.75662795726903
C           -2.92166474555826        0.18143011158232       -1.26846871323832
C           -3.62356537216799        0.60230028525174       -2.56296726561834
O           -2.72648066130879        1.04310992826804       -3.54755827303842
C           -3.93344245243973       -0.35147333376969       -0.24809171336470
O           -4.52568085513332       -1.51959813860201       -0.75220463867632
C           -3.21211695540169       -0.62187081702755        1.08235317566008
O           -4.09158819454634       -1.16558517822231        2.03579980067407
C           -2.52146255926876        0.66334622579642        1.55460670307115
O           -1.86390019441760        0.50025947324214        2.77965407423012
C            1.37848273566722        1.20526375453667        1.34650616078476
O            0.84496023100404        2.49558109553759        1.51199777194660
C            2.90619630256955        1.29092674414773        1.22212092124587
O            3.39850581980399        1.72533721964396        2.46176161719186
H            5.24505538707175       -1.57367881257559       -0.50805049340754
H            5.43129121665696       -1.80665227696257        1.25453610870840
H            6.61718334980042       -0.81627239597342        0.35157349641757
H            3.27752160342940       -0.81548025835506        1.62149505065848
H            1.32586389535154       -1.46663035105622        0.50387857510161
H            0.88668133160753       -0.47311980832820       -2.33948173595509
H            1.88504198441107       -1.90754182163144       -2.03585263624254
H            0.03339322012380       -2.87672505437093       -1.15376171921915
H            0.81932960715627        1.28615574501298       -0.72915235844622
H           -1.11401565619023        2.09585538202508        0.69410229789401
H           -2.18092295047933       -0.59985632015077       -1.48507604073247
H           -4.35183165942025        1.38911546951015       -2.32722207423456
H           -4.14390394678525       -0.26457822702178       -2.97175099216555
H           -2.23761573898333        1.79686244928866       -3.18787006589280
H           -4.70757789091296        0.41948962946047       -0.08567761700954
H           -4.86553106136591       -2.03374359153627       -0.00071707031471
H           -2.44998670494480       -1.39031323403616        0.90958629002328
H           -4.64898062717863       -0.46803508014110        2.41037571564066
H           -3.26175143486726        1.45465113222516        1.71541072612182
H           -1.27099939309038       -0.26184333639375        2.71303784021131
H            1.13742749411012        0.58463203781413        2.22308843434571
H            1.29256810654756        2.91592742538633        2.26376749332544
H            3.15944124870754        2.00337466651677        0.42321689963769
H            4.36410499129516        1.79036416623480        2.41642127670127
