48
 energy: -84.745298184751 gnorm: 0.000475680599 xtb: 6.7.1 (edcfbbe)
C            5.63525203813099       -0.93435263736363        0.50652867767023
O            4.86328083474543        0.24599250070250        0.71756353791181
C            3.50523701294837        0.03017839731234        0.86168848593339
O            2.96787718968272       -0.41497745498072       -0.36357198939393
C            1.57827780007653       -0.65876847506706       -0.31639347045223
C            1.18133859063804       -1.13838494974963       -1.72176572736897
O            1.51117284899165       -0.20463575434037       -2.71012976634603
C            0.76607948586039        0.58654560975365        0.08884689191799
O           -0.56166059711456        0.10829132689530        0.26122375350623
C           -1.57814545345921        1.08473654009967        0.42180818481427
O           -2.27520839224696        1.32108249841621       -0.76222951480086
C           -2.94955325311021        0.18828265144244       -1.30738493970174
C           -3.50893942907542        0.59884717699898       -2.66150333169900
O           -3.93546019467557       -0.75731354498267       -3.29123610776347
C           -3.99986414121890       -0.29406018884258       -0.27589925441930
O           -4.70101972421332       -1.39943843733009       -0.80388783678288
C           -3.29719366200650       -0.65024109537836        1.03136445544233
O           -4.26631266483945       -1.07272732690439        1.96778646632167
C           -2.52033846719912        0.57099603875452        1.53468618785994
O           -1.82136237846009        0.26398917142924        2.71310618996327
C            1.34178985007898        1.20957394885587        1.37167158890591
O            0.75576798382695        2.46586869123905        1.60134426054698
C            2.86418758702996        1.36417949297264        1.25976631840608
O            3.32748218146953        1.81130229554803        2.50609983412915
H            5.32521391479929       -1.43673563792695       -0.41002498216841
H            5.52581826756687       -1.61381293670505        1.35625773590293
H            6.66319143934886       -0.59455969799706        0.42323124419700
H            3.30454033999321       -0.73145410995122        1.64567612393216
H            1.36161913518873       -1.45082565935479        0.41669455636945
H            1.67428034861709       -2.09936684566057       -1.91426857920617
H            0.09921342359697       -1.26663981920774       -1.76055653349564
H            2.46359594182390       -0.03416635385801       -2.66283228974782
H            0.79105004015405        1.33178024433307       -0.71666262621380
H           -1.14894492101400        2.04853260087938        0.70585665629318
H           -2.22285091499782       -0.62698939259589       -1.45665742547719
H           -4.47233399531815        1.12157369154544       -2.45769291113185
H           -4.39203135802400       -0.53373263483394       -4.12504074951193
H           -4.52662815664626       -1.25532437813416       -2.67470508921923
H           -4.70114176927814        0.53403707145792       -0.07751089719260
H           -5.22783322423991       -1.79310261579053       -0.09260659765536
H           -2.58319414295679       -1.46858199397022        0.83800602664160
H           -3.87820055262840       -1.02769205731686        2.85433963572426
H           -3.22567305083251        1.36779334835192        1.79096822272713
H           -1.07329955727306       -0.30266695931066        2.46913072115515
H            1.12951124292237        0.53871996466652        2.22041705655828
H            1.22131223200038        2.88356613628161        2.34420574408425
H            3.09191061922818        2.09341644160302        0.46874109772154
H            4.29026666230179        1.91259613264670        2.46961891955803
