48
 energy: -84.739552372397 gnorm: 0.000528796592 xtb: 6.7.1 (edcfbbe)
C            5.70819466126691       -1.09559284709225        0.45084487101431
O            4.95156061351092        0.08651979753390        0.69819602211790
C            3.59592170969427       -0.11120952961696        0.85811968889985
O            3.02997565981896       -0.54526001956766       -0.36283806135855
C            1.63869064630295       -0.77816143769178       -0.29032728096625
C            1.19342410212682       -1.29019971059450       -1.66761199086251
O            1.61867423301881       -2.60140667501996       -1.91713461788358
C            0.85081196515620        0.48569332641769        0.10116761305861
O           -0.49255326486153        0.05440971569904        0.25524376561710
C           -1.47713968099316        1.07299357681894        0.39880855808909
O           -2.13961805548697        1.32237660569106       -0.79606239436610
C           -2.87680177300762        0.19446495653238       -1.31994204022279
C           -3.31044137035111        0.47647589219545       -2.73827956220148
O           -4.75124836781099        1.06401564268660       -2.65310157366973
C           -3.99642358814287       -0.09168950066264       -0.29590796092851
O           -4.89439278765676       -1.05146191514288       -0.80655682122799
C           -3.34403286341725       -0.52946173791865        1.01107628439319
O           -4.35807292510306       -0.83414570304956        1.94518057156340
C           -2.44301791833014        0.60590086841522        1.51532922864832
O           -1.74822851921493        0.21260073872418        2.67059297005175
C            1.43710067567288        1.08308527087042        1.39135254977750
O            0.87587356396428        2.34584422550415        1.64808293922307
C            2.96647529613539        1.22323618979474        1.27591413128268
O            3.49503780703279        1.74044323345127        2.46479301000946
H            5.44569846196569       -1.52273568024849       -0.51701681437046
H            5.53513167096576       -1.83190584251370        1.24069630319013
H            6.74601579660320       -0.77622778925722        0.45313736072455
H            3.39673017831062       -0.88692704318145        1.63280454282298
H            1.43242912158670       -1.55480420520414        0.46353794532760
H            1.56563236786049       -0.59730910221918       -2.42986133577052
H            0.10327318814867       -1.30362724573313       -1.69918268470522
H            2.58413907933870       -2.61014670265391       -1.98439606862003
H            0.91198249515927        1.23498096291826       -0.69848821759194
H           -1.00837214820841        2.01772556212758        0.68462112998583
H           -2.18636210606403       -0.66160625050014       -1.34544974886516
H           -5.38889071618867        0.36757684768544       -2.38053106152024
H           -3.46777009188805       -0.51987939285984       -3.19835120438459
H           -4.94751529769565        1.38195662053817       -3.55667160997954
H           -4.52980829459383        0.85348965763283       -0.10042036792179
H           -5.40115578654917       -1.40903613662390       -0.06244285400194
H           -2.72588986837624       -1.42431820938597        0.82583357624336
H           -3.96834020556448       -0.84750578502661        2.83168680203724
H           -3.07182482374398        1.45290344301839        1.80743095925570
H           -1.06274693241878       -0.41555985678651        2.39599339197893
H            1.20177653696198        0.40050280292708        2.22684963057165
H            1.45239558364009        2.81209339669228        2.27788310307792
H            3.20216499032480        1.95825974927231        0.49904530087379
H            3.51692998119391        1.06038924541912        3.15515603439415
