48
 energy: -84.741387461158 gnorm: 0.000376186413 xtb: 6.7.1 (edcfbbe)
C            5.51229365704193       -1.09522891229230        0.57179929366031
O            4.80898077330615        0.13324981901806        0.74203889693085
C            3.43722980569592        0.00478401960603        0.82793710433906
O            2.93233248985044       -0.41576835218266       -0.42214793426379
C            1.53976822966683       -0.64168115187717       -0.42288392098950
C            1.17628002894831       -1.09420086618541       -1.84571956578904
O            1.52219435044008       -0.13651722986545       -2.80600766357569
C            0.72231953255281        0.60008002082675       -0.02675390497197
O           -0.57598379305078        0.08764204065409        0.23781591002771
C           -1.60428223479450        1.03351273663748        0.41521900097149
O           -2.37148222760255        1.18636811221070       -0.73843511047316
C           -3.02525880934232       -0.00889707846416       -1.19768305265673
C           -3.64203964358843        0.31718952999423       -2.54067435782629
O           -4.57158913785642        1.59617078131093       -2.21419919062758
C           -3.98111270754708       -0.51293649321431       -0.08221298803566
O           -4.57661599554208       -1.72387543602036       -0.50669763432150
C           -3.17841309125068       -0.73104336447414        1.20928604178198
O           -3.99518722382110       -1.10956750108620        2.30166011157711
C           -2.48389464349454        0.57550601708279        1.59183197219180
O           -1.68216332597400        0.43913433286603        2.73368488474291
C            1.30394755902286        1.29814049214686        1.21485278889133
O            0.78401639729167        2.60548057511930        1.29459727396371
C            2.84135743748981        1.37107466499173        1.18567687578639
O            3.32781132184090        1.88970457900697        2.39309483197347
H            5.21074493588618       -1.58583382915466       -0.35443699728209
H            5.32581168418197       -1.76037757687128        1.41990576955181
H            6.56182716462183       -0.82027442792346        0.53126951141554
H            3.15328737597567       -0.74933880200640        1.59608963144820
H            1.28619367118368       -1.43878137957389        0.29309248331535
H            1.67683868577836       -2.04839674996806       -2.04942749379875
H            0.09559227937587       -1.22801721561527       -1.90967174138904
H            2.47531867348645        0.02638741312071       -2.74446246371348
H            0.69005571897339        1.31348278177119       -0.86086386580116
H           -1.18816688084737        2.02236212016578        0.63017308380923
H           -2.28276113025065       -0.80156140406271       -1.36993120374530
H           -3.91147324495540        2.18088149510001       -1.78806506675211
H           -4.39994579817387       -0.46781283605172       -2.72898627599605
H           -4.77490202356336        1.96184751704279       -3.09944453472037
H           -4.74418427492081        0.25458094859754        0.10263923876379
H           -5.47683085689829       -1.78322801516910       -0.16008618226452
H           -2.40857573378675       -1.49222812192841        1.02008151738417
H           -4.31467803545053       -2.01136517531200        2.15942376444530
H           -3.25548483721035        1.34396395302261        1.76075799265193
H           -2.22046681037736        0.00905289483534        3.41823112634832
H            0.98003881320329        0.71800804364986        2.09601201554378
H            1.28862350556441        3.09433368364894        1.96614420362699
H            3.15312687709800        2.08026173458870        0.41160568707094
H            3.23810249201133        1.23765260445364        3.10419713082286
