48
 energy: -84.857880647143 gnorm: 0.000737218546 xtb: 6.7.1 (edcfbbe)
C            5.52770358680567       -1.19406791841229        0.68237649813593
O            4.84869114682600        0.04905215114444        0.84635493434453
C            3.46935907374632       -0.04730151251074        0.87477131570786
O            2.99672730959343       -0.42332622222573       -0.39963355141532
C            1.59822692820634       -0.60752671162975       -0.43815352030135
C            1.25495398855392       -1.00008271175704       -1.88343951617701
O            1.62689558893226       -0.00840675205944       -2.80035948953456
C            0.80357574874765        0.64125616523516       -0.01464481399548
O           -0.50739334920331        0.14599357023770        0.22084086589218
C           -1.52612230060173        1.09688990829483        0.41613957728604
O           -2.28107315799411        1.28929297015086       -0.74853303101800
C           -2.95171069217089        0.11887379856291       -1.21163066548454
C           -3.73413066327997        0.52140528555306       -2.46650700410490
O           -2.89932469004206        0.91359332942676       -3.52239718582218
C           -3.89151548161673       -0.45245838738053       -0.14019983598450
O           -4.44944187750019       -1.64419703366464       -0.64098027057094
C           -3.09109254607855       -0.69932119053395        1.15246545594706
O           -3.91559607684347       -1.11205725234160        2.22061122949885
C           -2.42239308250411        0.61426232307064        1.56758213000404
O           -1.63789989323844        0.46927367217252        2.71820564632088
C            1.37880787804121        1.30171896082641        1.25087601552219
O            0.88436794994977        2.61769558080044        1.33578192165848
C            2.91252368766783        1.33211221057044        1.23985725836317
O            3.33316588183317        1.74396181704124        2.51350013713195
H            5.25657413596576       -1.65675238521486       -0.26720553536386
H            5.28188358193992       -1.87002028703147        1.50612011315748
H            6.58539201653040       -0.94855598405613        0.69636113677816
H            3.13676369847137       -0.79787370090478        1.62255742770646
H            1.30815722172374       -1.42035043834817        0.24519357502337
H            1.75064708034186       -1.94993556229334       -2.11614317685315
H            0.17518486510500       -1.12269883021613       -1.97138471062257
H            2.58272282022683        0.13047540358252       -2.72727842617185
H            0.79705266849120        1.38077010328082       -0.82623123093993
H           -1.10470479788666        2.07656115993340        0.65873809904732
H           -2.21120823451630       -0.64958799784107       -1.47198326289379
H           -4.42580855106346        1.33051847182447       -2.19914232990019
H           -4.29663972894645       -0.34353777927126       -2.82077608064712
H           -2.35452872260393        1.65379903339758       -3.21999342453420
H           -4.67216699021397        0.29029599510271        0.07306972687217
H           -5.28973299783601       -1.82418316492013       -0.19580013622697
H           -2.30523203990736       -1.43861006568959        0.95176499427681
H           -4.14019226872243       -2.04720661826486        2.11545392009435
H           -3.20528159247615        1.37218849814858        1.72883263822063
H           -2.18524657611452        0.03834673596486        3.39556602305716
H            1.04328490840038        0.71725929934922        2.12147938924209
H            1.27290751050002        3.03634065425171        2.12030516467476
H            3.24921406742422        2.03946226480269        0.46699587598066
H            4.30204596621916        1.73923013463519        2.54253212830481
