48
 energy: -84.851794889722 gnorm: 0.000357430683 xtb: 6.7.1 (edcfbbe)
C            5.57482892144597       -1.11483635777074        0.55548147758267
O            4.87216461788317        0.09787259213110        0.81703447325177
C            3.49783044760510       -0.03944373338505        0.88840307843685
O            2.99470778355182       -0.43544141521180       -0.36627664040183
C            1.60052086728000       -0.63066949743910       -0.37346106145676
C            1.22633907604711       -1.13703918387088       -1.78007185192653
O            1.85545184208787       -0.44260392922807       -2.81926316633099
C            0.81018291955141        0.63473815876770        0.02496334442043
O           -0.51674206861832        0.17116589570584        0.22563696117949
C           -1.52916575082901        1.13977930942773        0.39012036098417
O           -2.25259845778945        1.34277836938457       -0.79289743579932
C           -2.91738256563617        0.17948925860884       -1.28505972386380
C           -3.73236101346802        0.61062989491216       -2.51095897981418
O           -2.93236065527924        1.07455572101252       -3.56525854697241
C           -3.84751632238623       -0.46388176519530       -0.23621704910280
O           -4.40873130710248       -1.64813293613333       -0.73091739907326
C           -3.09657737322313       -0.66917315323166        1.08587133385679
O           -4.00076689825040       -1.14390476822726        2.04967932725671
C           -2.47267027201987        0.66542697910234        1.51247964176340
O           -1.80255578879477        0.46384109127668        2.72890567853767
C            1.38617289202049        1.24441727557115        1.31606723796315
O            0.84593467087627        2.52979331145274        1.51416590101380
C            2.91482941956724        1.32754548504335        1.26117389225785
O            3.35050191523658        1.76723342818169        2.51983855308103
H            5.28435535548342       -1.52055568539504       -0.41417915207206
H            5.36892423309009       -1.84694347103796        1.34135673683688
H            6.62641202193625       -0.84425140468598        0.55502337693038
H            3.21261485617685       -0.79557829642256        1.65191740228612
H            1.32361550316880       -1.40316066504345        0.36218477806660
H            1.56435692364449       -2.16920566782347       -1.88461001589687
H            0.13373982508329       -1.10211971766399       -1.87403105686015
H            1.63725598443193        0.49805409106612       -2.78025678880298
H            0.83660303725531        1.39722138469534       -0.76368302454401
H           -1.09793029865169        2.11590120473736        0.63369731307023
H           -2.15985055945973       -0.55806778104348       -1.58781674364569
H           -4.44879356342906        1.37878828538490       -2.19694544294760
H           -4.27837518646117       -0.25641691617662       -2.88628521809588
H           -2.49322259400787        1.88775744025589       -3.27852486497053
H           -4.69850282340655        0.20007344409709       -0.04575818577435
H           -3.75093335524287       -2.35890768784624       -0.71491454697754
H           -2.27728252411386       -1.39074159092160        0.93859795428873
H           -3.54990392613870       -1.15350384202241        2.90819334415885
H           -3.27485054293011        1.40900556390735        1.61862798164078
H           -1.57025681712600        1.31806158753748        3.11887683947359
H            1.10382226005479        0.58830206074116        2.15514424689183
H            1.38116221927228        2.97478364840299        2.19188873149917
H            3.21394591984184        2.03500400698337        0.47287563879576
H            4.31922315783021        1.77547597950445        2.53549229289947
