48
 energy: -84.833011174682 gnorm: 0.000447559773 xtb: 6.7.1 (edcfbbe)
C            4.73719838393578       -1.78297213209667        2.00466955839358
O            4.39752608649042       -0.47142295132194        1.56511555069035
C            3.03128753821777       -0.20248392821156        1.55008837418406
O            2.40368828786642       -0.99817195893598        0.56626887923276
C            1.62756980069309       -0.39836240080331       -0.39352284924685
C            1.55624914961674       -0.94361679415484       -1.60001843127074
O            3.28054935963034        0.15558280976360       -6.88583456116538
C            0.77280398492755        0.78504111181304        0.00831244327067
O           -0.49065591616674        0.24098440889327        0.38328671710884
C           -1.51876584886131        1.17721337001603        0.58758855722664
O           -2.36246078882271        1.25973923458636       -0.52695795041059
C           -2.97584759901401        0.01870776858292       -0.87767933532129
C           -3.87656067223145        0.29618693026452       -2.08754591784881
O           -3.14658131627302        0.65780048918996       -3.22915709857494
C           -3.78898929840457       -0.55559244930634        0.29291809162968
O           -4.33735770368850       -1.81307711333579       -0.00598911765976
C           -2.92601809559324       -0.62258559288110        1.56283068899221
O           -3.69179786118993       -0.99513327771249        2.68448577886563
C           -2.31424948240873        0.75408916761191        1.83306238805410
O           -1.44818520929380        0.75081833883674        2.93470491257258
C            1.38166489933725        1.60969232982653        1.15344758740955
O            1.16432335280797        2.97118425151284        0.88337070345665
C            2.87344542765208        1.29482580805894        1.27775826796040
O            3.39732762080460        2.06267798344625        2.32426461032054
H            4.29590408302888       -2.53289678059194        1.34690219588704
H            4.38694577974000       -1.93976739957949        3.02856897726110
H            5.82125034274768       -1.83097726812155        1.96249815848213
H            2.58063954366663       -0.45637156015035        2.52863714878564
H            2.13872537042830       -1.81172653577161       -1.84491777278704
H            2.33720844344408        0.26018570046581       -6.72575643142717
H            0.89149443220914       -0.54710939419970       -2.34162070776980
H            3.67040119167754       -0.17784478935777       -6.07131574753380
H            0.64316575581167        1.45243770920076       -0.85426979951864
H           -1.11308645398141        2.18490994669660        0.72633527277501
H           -2.18617553739450       -0.69455120040104       -1.15687686900559
H           -4.58955041120999        1.08295382333370       -1.81395825971028
H           -4.42404790568664       -0.61278130957576       -2.34143611182372
H           -2.68705176164302        1.48893815772415       -3.04441812217288
H           -4.64656300525405        0.09809919357774        0.49149962349635
H           -3.63245769844819       -2.42694651390006       -0.26302782484351
H           -2.10051570806026       -1.33714828035165        1.41187564959928
H           -4.29986762546616       -1.70331412081867        2.42130351528189
H           -3.12723588172341        1.48093036110234        1.98516401331432
H           -1.90965665383371        0.32454035794910        3.67474781246335
H            0.88639004853253        1.32381345542497        2.09557284551873
H            1.64788227840657        3.49406924762422        1.54274402876806
H            3.37908258357832        1.52680768777956        0.32703012836453
H            4.33488171371378        1.84661693060291        2.44054861305854
