48
 energy: -84.743642512805 gnorm: 0.000697006251 xtb: 6.7.1 (edcfbbe)
C            5.70510548192205       -1.05937984144595        0.58128080420058
O            4.91919673855186        0.11914122187739        0.73090877476902
C            3.56538698015701       -0.10085170256543        0.88280966721098
O            3.02255808660187       -0.49258606470678       -0.36150410089843
C            1.63111115393140       -0.72966298521419       -0.31954181241346
C            1.21520284676137       -1.24622560442603       -1.70385453266243
O            1.67746524181109       -2.54307626497703       -1.95961262308571
C            0.83885576364310        0.53770699482758        0.04821398623750
O           -0.49920868729350        0.09483245814056        0.22430682412931
C           -1.49962312898482        1.08300138048860        0.35313606361856
O           -2.18835429773421        1.28378171566066       -0.84500943273721
C           -2.85878174958731        0.12952831761798       -1.35175527375266
C           -3.47761279234349        0.57182860256222       -2.67731122167752
O           -4.25088031958080       -0.65402523527061       -3.23304113782225
C           -3.85272900589270       -0.40574937063000       -0.28668384663612
O           -4.42124911733364       -1.60491083044640       -0.77327422028030
C           -3.14465857682408       -0.64653271939306        1.04731249007871
O           -4.10950269968928       -1.07831272361857        1.97995620530354
C           -2.46256841375974        0.65083768807416        1.47776330508529
O           -1.80195003337941        0.42652823505918        2.69588854787652
C            1.39832411208190        1.14089840940309        1.35164566506786
O            0.87372763607531        2.41688358584687        1.64625429866983
C            2.93441476981798        1.21082286938485        1.36136790240859
O            3.40518320872195        1.45567710650134        2.65904853979928
H            5.45269738722950       -1.57465887025988       -0.34622476863051
H            5.55241886797555       -1.72838935518573        1.43251184807944
H            6.73480634605560       -0.71548879118638        0.55346781896165
H            3.36903539311995       -0.89198247509857        1.63580726425460
H            1.40426219138371       -1.49585462057078        0.43772439832660
H            1.57689507453821       -0.53993394024208       -2.45991856388841
H            0.12652698718846       -1.29104747013713       -1.74030269839995
H            2.64477449562313       -2.53217096326272       -1.97523831465312
H            0.89268573113100        1.26912208613018       -0.76978957836930
H           -1.06333076565030        2.05655624633454        0.59542117192402
H           -2.11383492138408       -0.66775788584526       -1.51833390839924
H           -4.30677774010110        1.26393826790573       -2.41739284930560
H           -4.55226987134265       -1.22868663747660       -2.48099255333711
H           -3.61669285751856       -1.14665309210115       -3.78957940544356
H           -4.64332900378029        0.34496756701529       -0.12200395269409
H           -4.94160178617207       -2.00931206444091       -0.06230551591355
H           -2.36726121243517       -1.41449439843504        0.91599307449111
H           -3.69352530760931       -1.11669495617980        2.85333706882092
H           -3.22831652199366        1.43492607185547        1.58339907425882
H           -1.39514470753567        1.25050284181320        3.00001836161384
H            1.07231483067895        0.49644462205556        2.17707930142857
H            1.20046756158252        3.06243801244105        0.99986753257802
H            3.27627347335879        1.99646792225541        0.66853829967370
H            2.94002315857890        2.22740164334024        3.02171103133313
