48
 energy: -84.739451301423 gnorm: 0.000486702484 xtb: 6.7.1 (edcfbbe)
C            5.61027764246230       -1.17644531290644        0.67335476250408
O            4.91313290836728        0.05773346463700        0.82959734364880
C            3.53642862967848       -0.05882921560277        0.87453051221657
O            3.05394005039992       -0.43952425966787       -0.39436415494362
C            1.65555322698791       -0.62694032724022       -0.42819798703064
C            1.31156780205987       -1.00435097734926       -1.87801522061357
O            1.72749357589433       -0.02609033982911       -2.78873285935850
C            0.85627920235269        0.61505627987353        0.01104241164953
O           -0.46224516901288        0.12088648550433        0.21522340133288
C           -1.48129979859738        1.08451314125012        0.41608387542411
O           -2.21446228548255        1.32327092627986       -0.74519062616126
C           -2.89358478900133        0.19005834963274       -1.28346773935625
C           -3.54556292666031        0.68480237645275       -2.57175865536198
O           -4.26798741476100       -0.57327093885225       -3.15032040795944
C           -3.86933382098176       -0.36492728635713       -0.21435355772417
O           -4.56894778907811       -1.51048924084690       -0.67074766038981
C           -3.12988588021124       -0.67995716251717        1.08845569768308
O           -4.01655228247833       -1.11083018410445        2.09686754197130
C           -2.38400418706398        0.56923197445223        1.56496868750209
O           -1.64179548681013        0.34445263437328        2.73130308259000
C            1.43133177851484        1.25447263750661        1.28691291170491
O            0.91592125356696        2.55685264634257        1.41972327502539
C            2.96387361388600        1.31146967663689        1.25011311321953
O            3.39540795250874        1.72527675667157        2.51922299988895
H            5.33028219260574       -1.65972107668356       -0.26309186872388
H            5.39188626894741       -1.84182134188075        1.51323991175927
H            6.66349438224746       -0.91254918858207        0.66356456106968
H            3.22507911805735       -0.81579603486494        1.62570358896658
H            1.37440250301682       -1.45081250397699        0.24565832300197
H            1.77577421851283       -1.97121161970283       -2.10834264564028
H            0.22852096562287       -1.08212715217148       -1.97752249152851
H            2.68147615883497        0.10364772377544       -2.68144660641639
H            0.85578601870686        1.36655784231321       -0.78966598822088
H           -1.05162064919903        2.05069992309581        0.69182112645108
H           -2.15448820127920       -0.59708325933980       -1.51474839522253
H           -4.37597129905020        1.35440193820457       -2.25272073237568
H           -4.90831533190788       -0.95839481465528       -2.50253590334832
H           -4.71676661001747       -0.26286291389395       -3.95982616234597
H           -4.63772433450141        0.39007800527331       -0.00674160991996
H           -3.93029654586095       -2.22038710930334       -0.84228686929411
H           -2.38029613097199       -1.46852739091922        0.89168253023039
H           -4.71033055677317       -1.65086185191144        1.68437069041916
H           -3.10795035999486        1.34976587752323        1.81731856417590
H           -1.08101990438635       -0.43284980777453        2.59224792311075
H            1.13159466319155        0.64453339978045        2.15363611690123
H            1.33202317735789        2.97106726568241        2.19275141250918
H            3.27547953917729        2.02609374921351        0.47424956796760
H            4.36404490933803        1.75745123576696        2.52857023846298
