48
 energy: -84.855015367024 gnorm: 0.000458740502 xtb: 6.7.1 (edcfbbe)
C            5.63058546716582       -0.95287273616632        0.40205850219769
O            4.87527208822260        0.22942749159664        0.65816209016005
C            3.51652173223512        0.01902287614832        0.80816822449190
O            2.96705049459284       -0.41710439624988       -0.41469280882822
C            1.59100186508709       -0.70316896645250       -0.32269661679313
C            1.15757049892187       -1.26790823969549       -1.67672821684935
O            1.53603334644596       -2.62061093980643       -1.73681284618938
C            0.76486938162077        0.53868218671644        0.06413038635111
O           -0.54821434953755        0.04965782864669        0.29228502491272
C           -1.57268199133113        1.01131075195002        0.45036096662792
O           -2.29953619426270        1.17551138451913       -0.73530316669415
C           -2.98474616446977        0.01379416323359       -1.19658253458256
C           -3.74531186921751        0.43879417144624       -2.46154099016183
O           -4.57681504948329        1.54394365237993       -2.22785803383189
C           -3.95156643094039       -0.53325626744028       -0.12808751993477
O           -4.60685303492073       -1.69114295861310       -0.57258156054243
C           -3.17525337294166       -0.76773240847068        1.17848515116905
O           -3.96936969259422       -1.32116432958631        2.19330011384721
C           -2.49680811786996        0.54665606628636        1.60033641457112
O           -1.80076643672458        0.42787522622867        2.80873287865568
C            1.35581649808454        1.22008729241794        1.31046605950922
O            0.78020740785591        2.49552798215886        1.45418751133127
C            2.88123326370774        1.35687748100307        1.20400679884150
O            3.34304172935874        1.80943500234921        2.44877041292605
H            5.28801028994092       -1.43196958675343       -0.51574307589140
H            5.53565769755985       -1.64958228398672        1.23956953115960
H            6.65920808901202       -0.62095561918433        0.29884613620747
H            3.31653934383643       -0.74326430852019        1.59174206247285
H            1.42288450446911       -1.47469931559673        0.44472618494968
H            1.65123319635517       -0.67961685665668       -2.45755882681683
H            0.06937852242358       -1.16363367752746       -1.76297451599230
H            1.40277402849078       -2.95273570555693       -2.63621748431259
H            0.76088472922619        1.26540166306259       -0.75934377097703
H           -1.15382344161313        1.99458966679287        0.67774886999963
H           -2.25511614904538       -0.76803414653477       -1.45047400020384
H           -3.02206734969395        0.66169919766056       -3.25514748873622
H           -4.39634553759183       -0.37933374285148       -2.77441427212346
H           -4.02610439367140        2.26647060149866       -1.89204108241398
H           -4.74480290126627        0.20675168148020        0.03167990111291
H           -4.00227695965948       -2.44696108280325       -0.54253522225070
H           -2.38906019915404       -1.51282930428260        0.99693672573532
H           -4.70703469358752       -0.73038396710615        2.40078171556516
H           -3.24891228722976        1.32534946637658        1.76485373547114
H           -1.25127136497734       -0.36788499540042        2.77692743861572
H            1.12630544563292        0.60270179245865        2.19227853414994
H            1.20720094468498        2.93862853239173        2.20479707240380
H            3.11923293350693        2.07880383998047        0.40832783128722
H            4.30873449162771        1.88454885049510        2.42031378508313
