48
 energy: -84.733408928185 gnorm: 0.000518982762 xtb: 6.7.1 (edcfbbe)
C            5.37095612579711       -1.42368826442714        0.90913901763843
O            4.77985096483728       -0.13690009949306        1.07967019382577
C            3.40035581488163       -0.12688528887404        0.96677352074846
O            3.03306992877457       -0.50262115974061       -0.33399721733490
C            1.64359604085538       -0.69908697154391       -0.51063889321369
C            1.55174369070781       -1.16999498059107       -1.95646383052689
O            0.03937657575954       -1.21147372182817       -2.34013993340218
C            0.82006469558837        0.57576495052745       -0.13987988026197
O           -0.48642226297174        0.08783940989832        0.15432179520022
C           -1.50415464444845        1.04927156865351        0.31056196390947
O           -2.27467314404095        1.14556946545011       -0.85332819580573
C           -3.02016759148460       -0.03072310434653       -1.17595294096732
C           -3.89265609215043        0.30936291514899       -2.38877719541417
O           -4.88774136036953        1.22782956147635       -1.99877562113708
C           -3.88954129509041       -0.52843627331079       -0.00899253055500
O           -4.50854325070513       -1.75269493632092       -0.31245339039749
C           -3.05090199074220       -0.64717186506341        1.26805181630944
O           -3.84817576876654       -0.96899558183603        2.38432076163190
C           -2.36133149986280        0.68972182349092        1.53194987002757
O           -1.53497638456121        0.65142106394400        2.66406391209003
C            1.36744924139199        1.33279151250113        1.08561472574041
O            0.93852248037196        2.67751348164709        1.00520858743981
C            2.89726267643223        1.29694789756916        1.22211555960362
O            3.28944815921092        1.83249683796084        2.45757203135422
H            5.13438236553969       -1.82050690588840       -0.07902556042847
H            5.00862697378365       -2.11012920922226        1.68013953311071
H            6.43953450143141       -1.26313140761969        1.01420266386995
H            2.93910788931399       -0.83478567573197        1.69446414400617
H            1.29227304404825       -1.48348812636882        0.18426468953826
H            1.96383294596669       -0.33342794684072       -2.55864829061534
H           -0.33711206872151       -0.32405703343124       -2.50054475648936
H            0.03907644073446       -1.73433339934415       -3.17063666441755
H            0.79113945870742        1.28720455299090       -0.97825877677450
H           -1.07317591962072        2.04536812942125        0.45468241525971
H           -2.31719475857893       -0.83598186179886       -1.43497045807312
H           -3.25324187387178        0.74577614217586       -3.16317839566125
H           -4.34858411495033       -0.61952551698235       -2.75233903887958
H           -5.40244910674885        1.48468213523420       -2.77618791287384
H           -4.70206101801455        0.18642159803677        0.15909374683470
H           -3.83300167145020       -2.42262740555922       -0.50271790476041
H           -2.26873456540292       -1.41249080575477        1.13032391573052
H           -4.52133560176776       -1.61012739607554        2.10689647659497
H           -3.13061621346611        1.46997144447905        1.64349351173791
H           -2.04961805949960        0.25924660089565        3.38819757674248
H            0.92266525418874        0.85859956429396        1.97740455673475
H            1.39083493919845        3.18183355595145        1.70034285612156
H            3.34820342291082        1.94182805437533        0.45978368711310
H            3.09487161612779        1.20685366427431        3.17108684174848
