48
 energy: -84.746549623376 gnorm: 0.000721487415 xtb: 6.7.1 (edcfbbe)
C            5.52214402967908       -1.22242856784248        0.54962081311575
O            4.84606030188909        0.03023736264735        0.62918322490069
C            3.47450525157310       -0.07687395531847        0.77927313922921
O            2.92370593791802       -0.47316158040560       -0.44902468721124
C            1.52542021510227       -0.72558503323395       -0.39437899091687
C            1.14168797620720       -1.36963736040887       -1.70868610471737
O            1.62091967451710       -0.28740895878911       -2.79645794385404
C            0.76147772976311        0.58014196841370       -0.02064421046216
O           -0.55265775987033        0.12711663172944        0.28997707676674
C           -1.54801191675308        1.09634337942363        0.46195395492181
O           -2.33283801120613        1.22485421925228       -0.69543407834523
C           -2.98037258829933        0.01370878759094       -1.08702943885618
C           -3.71302974256724        0.31544270936598       -2.40074832184381
O           -4.79244791032476        1.19715989025884       -2.22978287031741
C           -3.92940892841235       -0.46558008599649        0.02486609575963
O           -4.50830296376898       -1.71451729364303       -0.26593901374109
C           -3.13193385871200       -0.62860936451936        1.32485647774444
O           -3.96678918678542       -0.95506374633953        2.40938964982634
C           -2.42770736293537        0.68824469439881        1.65593032038101
O           -1.61973701315926        0.58965505089948        2.79534911493440
C            1.38908844890557        1.31827276091729        1.17494410826328
O            0.95220705479844        2.66097183930082        1.27345855784879
C            2.92771156477475        1.29590859082616        1.18313789422001
O            3.42171070175584        1.60413680843635        2.45925971019789
H            5.13089357391805       -1.81724895983884       -0.27731099613060
H            5.40606072683092       -1.77359998538052        1.48709147062538
H            6.56648985850876       -0.97553730699834        0.38425187619576
H            3.21216248952093       -0.81503181314885        1.56446341682767
H            1.30337587559557       -1.45019084075640        0.40473685715241
H            2.55150422541269       -0.15176811853031       -2.51864753438938
H            0.04042773782926       -1.28948712744191       -1.78289816194676
H            1.62581453984176       -0.79190789055051       -3.63656953223421
H            0.72336694206731        1.25384569167972       -0.89082049840466
H           -1.12145306024463        2.08600194572533        0.64790737898634
H           -2.22592001061264       -0.76634527881947       -1.25934021803348
H           -2.98404832904688        0.72278709454262       -3.11021037941322
H           -4.12561923378907       -0.60875097207756       -2.80710956459798
H           -4.44860055858853        2.04907635315061       -1.92730618855682
H           -4.70519103737366        0.29680722283842        0.18514532881140
H           -5.19875077363263       -1.60538389004109       -0.93463866426466
H           -2.36966111870300       -1.40852047799566        1.17680018028139
H           -4.48641122901340       -1.73618548302020        2.16602984622546
H           -3.19357844911155        1.46815461853990        1.79662688187166
H           -2.14839691047177        0.17277242768106        3.49494869217947
H            1.02305329654677        0.83117777036758        2.08689632786354
H            1.29801894060283        3.16951177169243        0.52256596730367
H            3.31114808745576        2.01743528591699        0.44237361072175
H            2.98801276783725        2.41361123001897        2.77363337135939
