48
 energy: -84.746244537555 gnorm: 0.000661628559 xtb: 6.7.1 (edcfbbe)
C            5.51541758511186       -1.20922054183422        0.67308673796338
O            4.84695086243692        0.04106214812315        0.82643461142685
C            3.46701789259303       -0.04285126678079        0.85662840478582
O            2.98876888545668       -0.41019788054046       -0.41771736945896
C            1.58755910365240       -0.57612346166148       -0.45754120511652
C            1.23884345413339       -0.95679799028252       -1.90417080515257
O            1.65809516762932        0.01312075575288       -2.82309722104682
C            0.80498038556701        0.67677327069045       -0.01987536392358
O           -0.51019057376770        0.18973976716688        0.20824196087914
C           -1.52111909327560        1.14962513849112        0.41631296214962
O           -2.27951043950850        1.38000757051770       -0.73321952380391
C           -2.93414990241698        0.22796577060829       -1.26319812218951
C           -3.62147238878779        0.70433353394514       -2.54128331333716
O           -4.37460387412176       -0.52557999956972       -3.12311576965519
C           -3.87226029495686       -0.37743337302270       -0.18118786807366
O           -4.42017820591822       -1.57813346327193       -0.68990288080076
C           -3.10642841910239       -0.64052624133871        1.11591472663437
O           -3.94493770173638       -1.16823261873931        2.12347354982156
C           -2.41495741759656        0.64571121978657        1.56701723927208
O           -1.63087395446944        0.45479815009765        2.71372851563128
C            1.38957789234671        1.31785142953828        1.25093842893947
O            0.90489547839239        2.63556726263839        1.36197922715979
C            2.92265217946990        1.33985698115317        1.22721495459435
O            3.35665421662025        1.74822973976269        2.49757819957552
H            5.23085368803511       -1.68359687995869       -0.26651254091879
H            5.27409912912223       -1.87087487375775        1.50973348257696
H            6.57481879019309       -0.97065048629679        0.67209985417240
H            3.12878383789143       -0.79250149884375        1.60316223335118
H            1.28924090942869       -1.39030276160025        0.22105385174308
H            1.69541172431231       -1.92807828063818       -2.13091948432563
H            0.15482861032392       -1.02806084269627       -1.99712073378435
H            2.61319730019017        0.13641031308178       -2.72000911932797
H            0.79950269198867        1.42433787624472       -0.82471292473635
H           -1.08992893831310        2.11927285487218        0.68024213632044
H           -2.17374318216479       -0.53845365853013       -1.49248766351700
H           -4.46262143822270        1.35524382791804       -2.22147999620817
H           -4.62538759681482       -1.14958580626759       -2.39397262004372
H           -3.74327220900265       -0.96100953853394       -3.72879690741218
H           -4.68041740396740        0.34737364902533        0.02332383844561
H           -4.81083647966361       -2.08697739843814        0.03776778011249
H           -2.34210980657030       -1.40420732804440        0.93569143824168
H           -4.62813197192161       -0.51905167546488        2.35232146154191
H           -3.17599943553501        1.42404665008138        1.75314737275080
H           -2.07919720777260       -0.19078512955858        3.28596119221193
H            1.05770671579011        0.72320926535972        2.11656067434371
H            1.32287388683481        3.04567184411373        2.13615224693632
H            3.25569087556229        2.04572065772649        0.45182562151924
H            4.32591666854920        1.74655830497211        2.51429373262850
