48
 energy: -84.828440166459 gnorm: 0.000780793761 xtb: 6.7.1 (edcfbbe)
C            5.61651137581121       -1.05980991991809        0.36615709092080
O            4.87174365660494        0.14819799370522        0.50732502812483
C            3.53095679062312       -0.03693234007468        0.79244106123950
O            2.89519149215296       -0.65465722537940       -0.30423217346023
C            1.52261146731245       -0.88528354959052       -0.08255857612416
C            0.98368457040709       -1.66759076009139       -1.28102411558356
O            1.36216695049806       -3.01522503553658       -1.14162192160254
C            0.75510722971155        0.43529469435039        0.11993736605896
O           -0.57632877677100        0.05557154456946        0.41163046937679
C           -1.55039141683456        1.07252104115788        0.42207563383271
O           -2.26074269194857        1.06451777318372       -0.79349654143828
C           -2.98003685424495       -0.09636553044226       -1.04949339091144
C           -2.91099980343527       -0.67503744721451       -2.23607858713458
O           -5.61184369912983        3.73308271259547       -4.19131259295080
C           -3.88536888716650       -0.56629961239850        0.06437569323292
O           -4.38058921835964       -1.84223755727910       -0.23545206854566
C           -3.14424473608954       -0.55114373478412        1.41094684269077
O           -4.08620710477721       -0.84019988257403        2.41479027259248
C           -2.49928516599097        0.82375553680202        1.60739920241286
O           -1.83086706307920        0.82439849613444        2.83979232067697
C            1.40639362739203        1.21333333566056        1.27634215769863
O            0.82778067882794        2.49006655597538        1.40576269175405
C            2.91404134646024        1.34647796000622        1.03394496308312
O            3.46272603318571        1.98388580170577        2.15636098066381
H            5.20417947238904       -1.66851430980656       -0.43914937523093
H            5.59788651143022       -1.62519829689308        1.30194915417787
H            6.62938734439365       -0.74794741607171        0.13009419188164
H            3.39988897078931       -0.67175260939226        1.69513245793166
H            1.38593863686273       -1.49916746087985        0.82067457758420
H           -0.10772403477193       -1.56458576355880       -1.29125980114573
H            1.41246982623253       -1.23067191391682       -2.19047628155961
H            1.02838821273387       -3.51852309652282       -1.89859393513069
H            0.78857322791701        1.04344979617606       -0.79382739914645
H           -1.09132544066193        2.06339446000191        0.48259487921972
H           -2.26438037064280       -0.28938632935036       -3.00192266641439
H           -4.82857057473005        3.80885074016759       -3.63694652412830
H           -3.52214101359803       -1.53078496441409       -2.44707060092200
H           -5.59231690673697        2.85626210528916       -4.58672869389638
H           -4.72231266276124        0.15135677924751        0.15122634006187
H           -4.88014961990838       -2.15512019347169        0.53446943581396
H           -2.34632506962813       -1.30784141169040        1.39687006874615
H           -3.65763490324855       -0.73372686421551        3.27647383750614
H           -3.28607466602035        1.59381103573952        1.58491827300101
H           -1.44489418462958        1.69705544927969        2.99931532586394
H            1.24769307532185        0.64219219515684        2.20528206044881
H            1.42598486997975        3.02612670568160        1.95298806219404
H            3.08179354159102        1.94136470822057        0.12321836369221
H            4.42347792102378        2.04734561259334        2.04830294966530
