48
 energy: -84.849060428366 gnorm: 0.000508821056 xtb: 6.7.1 (edcfbbe)
C            5.68516650792692       -1.02906798186995        0.53578115940355
O            4.92524456792481        0.17127475575184        0.64717815908508
C            3.57128811956093       -0.02374669148822        0.82794878577474
O            3.01457842625914       -0.45755116585717       -0.39559784890813
C            1.62903827468222       -0.70972227633799       -0.32738952467067
C            1.21137208890956       -1.24825022110697       -1.70397980455464
O            1.43853713303588       -0.32263926670089       -2.72943712542303
C            0.82880072794643        0.55394003970263        0.03765112675989
O           -0.50095494013117        0.08668935034566        0.25002974275963
C           -1.51574891416188        1.06242816274511        0.39547222892458
O           -2.23729363530744        1.26556398982248       -0.78357414194667
C           -2.92756416972523        0.13129351502553       -1.29154474131951
C           -3.68005011514874        0.57865986611848       -2.55231904880680
O           -2.85599262472608        0.80261246760560       -3.66476638893411
C           -3.92312535569138       -0.43093785234330       -0.25426088047516
O           -4.59279822691805       -1.55718063164185       -0.75168388901484
C           -3.17711139277095       -0.70851388456808        1.05554266120687
O           -4.08736235319168       -1.15476322928333        2.02982362280959
C           -2.45191612696964        0.56474858971985        1.51864846100673
O           -1.75940235855857        0.32685154069895        2.71443036485384
C            1.41415257957584        1.25579215573799        1.27523181118529
O            0.90720243775065        2.55874480856215        1.45311361259909
C            2.95415800779121        1.31120503678495        1.25747016279323
O            3.44572352992585        1.60978402979512        2.53576626006524
H            5.35285781396948       -1.61629660570557       -0.32186419514251
H            5.59312848457244       -1.62103779677637        1.45058127014648
H            6.71300841578448       -0.70719255819868        0.39869654563000
H            3.37596828420758       -0.78382531727068        1.61209050152578
H            1.42447202887380       -1.47349079901359        0.43841969302887
H            1.75440085300380       -2.18183507546364       -1.89084128650384
H            0.13947866333357       -1.44674506059356       -1.68959900026119
H            2.38723132794700       -0.13258233028167       -2.76683526276883
H            0.84158891717922        1.24293410264291       -0.81965297555948
H           -1.09864695702628        2.03597511610688        0.66119641981193
H           -2.19356902964140       -0.64830423965540       -1.54728755068549
H           -4.15684521064266        1.53698900377101       -2.33870266355104
H           -4.45111115484912       -0.16994897720566       -2.76973057647415
H           -2.47108929305775       -0.03347805467168       -3.96294422889051
H           -4.70289212065461        0.31454231717244       -0.06381859060175
H           -4.02630191455682       -2.33997068758694       -0.68263275656055
H           -2.41618930945399       -1.48913093531802        0.87287815556434
H           -3.70454426991260       -0.99126972217996        2.90632809533127
H           -3.18684226171277        1.34461852175114        1.73749723288749
H           -1.02732318700458       -0.27879636613557        2.52110868109085
H            1.10340711503043        0.70723436252486        2.17191506693781
H            1.20457279798742        3.13046824386679        0.72840672819990
H            3.29022486795739        2.06284546272846        0.52578066029011
H            3.01236295911276        2.41581129018717        2.85991527416904
