48
 energy: -84.738569722306 gnorm: 0.000371838923 xtb: 6.7.1 (edcfbbe)
C            5.66048108041612       -1.06170089148560        0.52838658492294
O            4.92826494132133        0.14555553773980        0.72507638642080
C            3.56614200354216       -0.03442149841041        0.85804590880197
O            3.04296625668076       -0.44867955824979       -0.38484695433717
C            1.66151793150391       -0.71441615377643       -0.35034248700392
C            1.26706833148391       -1.26314064016963       -1.73119754264689
O            1.72723071088682       -2.56568385325554       -1.96013999876834
C            0.84326383777005        0.54478666452291       -0.00937902534520
O           -0.47656320278494        0.06587532839238        0.22065514882562
C           -1.49980993522107        1.03526243046085        0.34284680071160
O           -2.21816758427784        1.18229324243898       -0.84171795667664
C           -2.86822285836917       -0.00569703167265       -1.32304938927314
C           -3.40213246140772        0.30610099043783       -2.70296188987577
O           -4.42216285668650        1.52983336344586       -2.44149046427114
C           -3.88132325439232       -0.47762409747158       -0.25220370089013
O           -4.48207208038823       -1.67624290182086       -0.68618470231881
C           -3.15326476257097       -0.69338383101715        1.08167117960336
O           -4.03278385618451       -1.17856002298535        2.07325828182870
C           -2.43533847100943        0.59341924851584        1.49594738593882
O           -1.74645587365942        0.46161510453140        2.70920063704937
C            1.41086695090564        1.27768326913425        1.22372557572715
O            0.92117753910908        2.59491682616354        1.33542292621418
C            2.95130580081072        1.30669915996109        1.27097103022966
O            3.39368108926180        1.59763836274859        2.56893035709222
H            5.32320043638049       -1.56867580173191       -0.37746770720758
H            5.53864714646611       -1.72184226657894        1.39190930527183
H            6.69762936592010       -0.75598798114669        0.43067124102418
H            3.33756495166648       -0.79760288203877        1.63180423194248
H            1.45090660608968       -1.46710184220564        0.42709326388105
H            1.74266536159903       -0.64123014319327       -2.49163289932097
H            0.17828093027271       -1.19715686522147       -1.83608688860441
H            1.25964012502135       -3.18734981770956       -1.38444683930206
H            0.84638715272921        1.22443150518621       -0.87329287868438
H           -1.08370146939142        2.01985020584500        0.57195004884474
H           -2.13021718604690       -0.81112866267618       -1.44994262968654
H           -4.69434614888022        1.79862048341153       -3.34272570724384
H           -4.10218370346771       -0.51652881160942       -2.94420008912536
H           -3.81266688561661        2.21013717466163       -2.08997840520604
H           -4.65556427073175        0.29853146786717       -0.12159555395187
H           -4.86471808343841       -2.11458297929912        0.09034337616145
H           -2.40882256471569       -1.48746028052750        0.94091604307332
H           -4.56264868890841       -0.45058492132875        2.42931405984689
H           -3.16722745418002        1.39307057497038        1.65790523094828
H           -1.17575423458892       -0.31817037558925        2.66044542995093
H            1.05110351286673        0.76428587715112        2.12294280087341
H            1.27930837368766        3.14023291038420        0.61714410586837
H            3.32959660559374        2.05200451222354        0.55363200743762
H            2.97886384884459        2.42340387508962        2.86696127554463
