48
 energy: -84.634166669604 gnorm: 0.000617684017 xtb: 6.7.1 (edcfbbe)
C            5.49151827173029       -1.21406944112757        0.51662442137594
O            4.80402773943722        0.01639075181302        0.73809229087389
C            3.43144311071252       -0.11435779053386        0.85963148490246
O            2.89098201753612       -0.49324527793050       -0.37730323035195
C            1.49174906266230       -0.74572075251040       -0.33223632996336
C            1.10522984265158       -1.38197505023991       -1.64916529073738
O            1.47164169891595       -0.26104091668642       -2.73044630084876
C            0.72653742169976        0.55420655101535        0.05718257502572
O           -0.61636150194480        0.12664283414332        0.24299004868420
C           -1.59345882502729        1.12370591641115        0.39068562876117
O           -2.28632755324691        1.34744329481491       -0.80483097789115
C           -2.93363178328437        0.19070584922380       -1.33567179003230
C           -3.49141257733672        0.62472853782344       -2.68997689844430
O           -4.24482789202446       -0.60593560573287       -3.27393123190646
C           -3.96492526292158       -0.32460097606880       -0.29492459111535
O           -4.57792590260773       -1.49387805566765       -0.80613746456523
C           -3.25933765922662       -0.60823070567212        1.03691861442194
O           -4.18580399582645       -1.01853212970454        2.03162664762576
C           -2.56969829087901        0.68004282259540        1.49540888494811
O           -1.86053948792329        0.51030587956963        2.69236311821183
C            1.31104733612175        1.17563510516000        1.33327926714621
O            0.81024826426239        2.48412243066101        1.50854970064915
C            2.84871080314159        1.23795483784985        1.28723679167149
O            3.35583492691434        1.70120677304886        2.51045036607041
H            5.11386769877948       -1.70719657328753       -0.37955950750979
H            5.36938493320727       -1.87592238243093        1.37906624032233
H            6.53506384017004       -0.94101881454302        0.39431916005386
H            3.17291811565859       -0.88943665027064        1.61762270980734
H            1.27172044446161       -1.48227993087924        0.45859988894891
H            2.42549060516860       -0.11995329258835       -2.56372963223471
H            0.00014194237245       -1.35892578006054       -1.67366478438663
H            1.37284678763209       -0.71895100569124       -3.59157621007802
H            0.77219129243822        1.29434770374909       -0.75358144224718
H           -1.14398027068064        2.08412314046758        0.65651504560819
H           -2.18266306205108       -0.60805097334135       -1.46144781426864
H           -4.32885335863595        1.32176581544218       -2.47316644838854
H           -4.56278913793292       -1.17953370962729       -2.52768252304988
H           -3.59246251197602       -1.09090355201660       -3.81728394681012
H           -4.71884123182296        0.46063183080527       -0.12860878081544
H           -5.27969929935079       -1.77650580274576       -0.20088707360220
H           -2.48402051224958       -1.36622365269829        0.87943397338032
H           -4.11921319842781       -1.97164591150447        2.17426288013661
H           -3.32850310292057        1.47120490621209        1.60447192809659
H           -2.48242092341553        0.17822115623284        3.36081189484462
H            0.99282723973865        0.54501473424783        2.18156095522356
H            1.34386681193800        2.92194512789413        2.19300864317432
H            3.15230235246010        1.98179003115022        0.54252292612195
H            3.28325778086672        1.01300870666787        3.18844319165292
