48
 energy: -84.750397497218 gnorm: 0.000921063323 xtb: 6.7.1 (edcfbbe)
C            5.54877731357419       -0.75144350926701       -0.08065903049152
O            4.74607298095923        0.35490192332563        0.31755677593187
C            3.44649470061673        0.02004448749625        0.68466805240877
O            2.74258055533184       -0.45695511730699       -0.41974416669704
C            1.35832346030291       -0.82600149208710       -0.08443181715416
C            0.66657420050956       -1.60735459259881       -1.15643896494936
O            0.58285533535025       -0.79243739085562       -2.45531873300696
C            0.62571436020267        0.46910888538118        0.31722480898602
O           -0.71459032897201        0.08026617782674        0.52257410124658
C           -1.66974807567324        1.09919817700996        0.67463700604034
O           -2.32647536017589        1.29059592683811       -0.55519056291439
C           -2.84511357925399        0.06494110096941       -1.06622815252041
C           -3.11683132214486        0.24272104813276       -2.55061162491703
O           -1.86092252801236        0.27337538069408       -3.20376633158112
C           -4.05223780572460       -0.32028888955292       -0.20903552919245
O           -4.66667844524433       -1.46599227812825       -0.73318239076731
C           -3.51538500845261       -0.56253667606721        1.21090514135787
O           -4.61395350357862       -0.82806384708229        2.05479918632585
C           -2.70452502005801        0.64245665017499        1.72747528631874
O           -2.09761093539150        0.33228352138181        2.95538911103469
C            1.31213931622498        1.07644382143149        1.54868409165240
O            0.71634461213231        2.30434039828506        1.89155746675280
C            2.80031553187979        1.29688808526382        1.24100765905825
O            3.41903263618247        1.71245183413826        2.43112532906743
H            5.10178069457106       -1.25941264060441       -0.93664789739736
H            5.65711882945584       -1.45719476307111        0.74818770024760
H            6.51224463001188       -0.32837508133444       -0.34889706860905
H            3.45715205249845       -0.75988391377430        1.47994190703186
H            1.39964698212078       -1.48666015099479        0.79344539804027
H            1.35456285743524       -2.42230112509328       -1.44613132417546
H            1.29089056332479       -0.12447809120086       -2.52715837200320
H           -0.31767379112975       -0.37140234744239       -2.54108955031636
H            0.67378515226932        1.21299805051281       -0.49147744700077
H           -1.22284636796823        2.05540871713781        0.95102474578256
H           -2.08599229169495       -0.72312988344512       -0.96328631201667
H           -3.65621884637328        1.18118801975276       -2.71353419288974
H           -3.71904352992247       -0.60665098863444       -2.88434293399456
H           -2.00318032099952        0.25712525952579       -4.16105119313017
H           -4.76338944140869        0.52064746191867       -0.18028769588990
H           -5.29994827313995       -1.79573973570972       -0.07747207031873
H           -2.84703588177708       -1.43824350006215        1.17231681531152
H           -4.30710118402666       -0.81702084160131        2.97329607932300
H           -3.38875146621707        1.47445618578401        1.92287781734582
H           -1.37381732178993       -0.28727631466989        2.77762839963099
H            1.23204864513250        0.37153779202473        2.39093981724030
H            1.23176436428920        2.69980137074442        2.61198239489701
H            2.88747558935029        2.07386089353656        0.46566191725899
H            4.36109327339416        1.85904904603930        2.26369841734354
