48
 energy: -84.859650149545 gnorm: 0.000504714840 xtb: 6.7.1 (edcfbbe)
C            5.56023031284726       -1.04602691214755        0.46532083065659
O            4.83105047976544        0.15900680000324        0.68759670965965
C            3.46576354865107       -0.01135818986029        0.82256315877588
O            2.91637997414792       -0.41733492723354       -0.41188489220921
C            1.52625512419591       -0.64979988366956       -0.34482309741169
C            1.09075396821924       -1.12553317895832       -1.73939994906465
O            1.28857591638078       -0.14886983811116       -2.72350386628299
C            0.73624243842681        0.60224052218437        0.07883521679227
O           -0.58831399772095        0.13225848064670        0.28854099345384
C           -1.59011352586718        1.10877567875329        0.47526805797639
O           -2.31492405089726        1.33788313487301       -0.70154257121838
C           -2.98466747587863        0.19866641351913       -1.22905444532456
C           -3.71592537629665        0.66958715622710       -2.49344344477341
O           -4.58678566140733        1.73903974700557       -2.23249155723086
C           -3.96303232109807       -0.39345755775480       -0.20826241808781
O           -4.48362429052776       -1.58318700896099       -0.74678612373084
C           -3.22945514676854       -0.66776483765708        1.11530045363786
O           -4.09970813526500       -1.21857514715888        2.07355217420574
C           -2.53219705051505        0.61017393514462        1.59757248487302
O           -1.85184717225922        0.42587406070853        2.80735110531663
C            1.33847051712124        1.23808117915939        1.34237758756956
O            0.79522893774758        2.52326269649078        1.51934133417200
C            2.86698204985228        1.33682113717038        1.23954522225155
O            3.33850284309576        1.74862659081800        2.49502161875577
H            5.24352656346442       -1.51963768543776       -0.46441560760687
H            5.41287424557538       -1.73594446202793        1.30081646766024
H            6.60172564451905       -0.74552640514522        0.40202027600766
H            3.23453562216625       -0.77877964333955        1.59204932038621
H            1.31492513212742       -1.44206187948478        0.38933535039518
H            1.64240000634285       -2.04156015095100       -1.98086928054030
H            0.02159130084564       -1.33974842497558       -1.71970147772951
H            2.23537404296215        0.05065842962652       -2.77066255590575
H            0.74809850335514        1.34388316018376       -0.73101731903699
H           -1.15506102974165        2.07394863596655        0.74606969767954
H           -2.25639469953944       -0.57658930340953       -1.49976191027023
H           -2.96989622540845        0.94974800753711       -3.24603236535581
H           -4.32762233288787       -0.15239260691495       -2.86726632650232
H           -4.06161704938386        2.47128150528628       -1.87730722729028
H           -4.77421377813171        0.33350880349065       -0.03735642575737
H           -4.91462108616165       -2.07725292046134       -0.03077547701857
H           -2.47022188255710       -1.43837714597951        0.93288374991109
H           -4.67065260186402       -0.52742385103075        2.43965704785000
H           -3.27304067974784        1.39418660689654        1.78855938924683
H           -1.26491892451833       -0.33893630349866        2.72099037861122
H            1.09296176736841        0.60470591860301        2.20886892492661
H            1.23552561018120        2.93786567569292        2.27832636537611
H            3.12569605220172        2.06935332361110        0.46081727318379
H            4.30444690863751        1.81842767870544        2.46633207421863
