48
 energy: -84.845000804336 gnorm: 0.000757085492 xtb: 6.7.1 (edcfbbe)
C            5.58026821366742       -1.12766875602875        0.41863755644542
O            4.89033205407815        0.08260872481090        0.72380685590087
C            3.52237839802124       -0.06019540404430        0.84644977032152
O            2.97591250137173       -0.41491212720854       -0.40631488321688
C            1.58800529771400       -0.65402726595114       -0.36637465015962
C            1.17280468958128       -1.11872223283803       -1.76370496715539
O            1.46079369876232       -2.48975275032491       -1.88652640805882
C            0.79278077856643        0.59174467050006        0.06811264022867
O           -0.53040009840499        0.12433589528519        0.27339823363322
C           -1.53050343208142        1.09704630440750        0.46172721573292
O           -2.24658707847591        1.30559800688992       -0.72591612547096
C           -2.86557664290551        0.12130298834802       -1.22252674260262
C           -3.43479726569852        0.46703221954458       -2.59776491362356
O           -2.37182707485871        0.46878982344609       -3.52193908984646
C           -3.91339051881654       -0.37490690480268       -0.21185674918919
O           -4.49619667009872       -1.60083835812554       -0.58280260789097
C           -3.23115087003418       -0.61809705425773        1.14748582594452
O           -4.19036866500199       -0.92653850072386        2.12702574914035
C           -2.47662199847826        0.63555728088200        1.59445104312038
O           -1.76093131924571        0.34943657738190        2.76559201315215
C            1.38846255073944        1.16180156988275        1.36739437370166
O            0.84119528024351        2.43080353923215        1.64108593291745
C            2.92134159635869        1.27887391290721        1.28892245678926
O            3.42925602658409        1.75896707249076        2.50238753708665
H            5.22764971814810       -1.53870970806163       -0.52819765287251
H            5.42994315559418       -1.86051769362323        1.21664756139048
H            6.62787673259747       -0.85147202739563        0.34982261101720
H            3.27056748819462       -0.85633558317717        1.58320971885109
H            1.36357660796380       -1.45868478746276        0.35088079253980
H            1.73898213133826       -0.52817814201596       -2.49323145886263
H            0.10094892297669       -0.92901686150404       -1.89018194605205
H            1.24050298587081       -2.78133402082733       -2.78351645135043
H            0.81397548920344        1.36093279824521       -0.71467946676012
H           -1.09061015597922        2.06740944150839        0.71030701845061
H           -2.10671045986638       -0.66338449218546       -1.34667822446098
H           -3.90598575973007        1.45371767643774       -2.53227986683788
H           -4.17714503778022       -0.28743324435492       -2.88379052012597
H           -2.68560995927022        0.80770129184122       -4.37288791389745
H           -4.67849405573611        0.40248642352680       -0.07449019141563
H           -5.16663350589252       -1.46736527498190       -1.26672499925432
H           -2.50567151098078       -1.43680373790631        1.04114921378009
H           -4.66585240558506       -1.72180128583875        1.84033767591560
H           -3.21775909389779        1.42785728527914        1.76266838225779
H           -1.59792078344066        1.16943880544249        3.25258484711554
H            1.11795614549385        0.46376111937313        2.17848216951643
H            1.45350468202192        2.89559277824721        2.23817063121897
H            3.19137310485779        2.02561581053568        0.53432088293783
H            3.41558111420632        1.06324821340232        3.17689014754309
