48
 energy: -84.718396133423 gnorm: 0.000608415495 xtb: 6.7.1 (edcfbbe)
C            5.57905337167975       -1.28876984887059        0.72546937654433
O            4.93452848861304       -0.02841211856087        0.89827352312704
C            3.55746508736773       -0.09187295565272        0.96110143828230
O            3.05197229715135       -0.46991382164738       -0.30313420560001
C            1.64960832681376       -0.61979074800583       -0.32335119736024
C            1.27393349332910       -1.08503177439009       -1.73790710769847
O            1.59713187789641       -0.13728643965032       -2.71727871421956
C            0.91077448737888        0.67883457253377        0.04441126375701
O           -0.44063510054114        0.27537660574300        0.21494159008562
C           -1.39807146108039        1.29361331433770        0.34726142746368
O           -2.07958885706924        1.53521925712594       -0.85069431362356
C           -2.77507296801824        0.43895226480332       -1.41221967524634
C           -4.03009401196826        0.69668685251541       -2.02356870584355
O           -5.36899510265112       -1.67689166453608       -3.09102487423154
C           -3.76325303310450       -0.37431983994967       -0.42031024787580
O           -3.93843452383351       -1.68836333885739       -0.80748862890065
C           -3.05185252413758       -0.45476532106951        0.95961123000179
O           -3.97050729405779       -0.84833225391829        1.93916588946737
C           -2.42134092144272        0.86302459426295        1.41046453108013
O           -1.77162380501749        0.71776062862880        2.63972049119763
C            1.48120794435324        1.30249860871186        1.32758761045515
O            1.02731096535779        2.63167967648349        1.43954768377582
C            3.02174695695014        1.29517798907366        1.33635325679513
O            3.50437130393099        1.76082149327615        2.56607027031683
H            5.27101296092910       -1.75230156514541       -0.21254413137236
H            5.34323816157660       -1.95339397919591        1.56154744695940
H            6.64169116551396       -1.06682308853814        0.70793008948376
H            3.22604385520761       -0.84406407960459        1.71187572405698
H            1.34207714517852       -1.38808473474716        0.40279839066446
H            1.77841825832923       -2.03830841250397       -1.93555288163989
H            0.19416478492095       -1.22976342564421       -1.78280831099667
H            2.55518467065538        0.00535177165675       -2.70113459318109
H            0.99034386622244        1.40554820900768       -0.77527839470638
H           -0.93641139961621        2.24395534309859        0.62749643319084
H           -2.10097260371177       -0.30077770761907       -1.84168793748887
H           -4.37208241034339        1.70328886074946       -1.73599872629124
H           -5.04373723985977       -0.78071648635680       -3.28182189121684
H           -6.33112183747753       -1.63679479660948       -3.08694968392012
H           -4.72303857706576        0.14740461971955       -0.24076892757422
H           -4.47712958276787       -1.76532257816155       -1.64378934993808
H           -2.24844711743585       -1.19588685669446        0.84646578770462
H           -4.30519669026143       -1.73370427288319        1.72760951364265
H           -3.19926234542028        1.64102686919332        1.47119088289443
H           -2.39110187492291        0.29144659541663        3.25581141131570
H            1.10336179611764        0.71061161862593        2.17848479326059
H            1.53467188909783        3.06916366268272        2.14393726303205
H            3.38740145431241        2.00486786728580        0.58647902973396
H            3.37436870241445        1.09444781178638        3.25763587916111
