48
 energy: -84.737017426938 gnorm: 0.000277773685 xtb: 6.7.1 (edcfbbe)
C            5.70144073127849       -0.84696699014246        0.22889474802989
O            4.92356254359086        0.30323652140600        0.55637481671331
C            3.58051847934196        0.04142768707326        0.75625223971603
O            3.01144683423524       -0.44114608518314       -0.43403493667559
C            1.65293232423064       -0.80799035418041       -0.30062773178557
C            1.29971407103548       -1.52875655941387       -1.59468130506436
O           -0.14511900799378       -2.07528909656385       -1.41109540576719
C            0.80377759102760        0.45637130557865        0.05395930328446
O           -0.53732629752869       -0.00335245698441        0.25393061437221
C           -1.53510541495513        0.99681557452267        0.37146755297735
O           -2.23400790887498        1.18419028709365       -0.82312358780509
C           -3.01526154803237        0.08206836698382       -1.28420538362124
C           -3.75203217779582        0.59040251251109       -2.53421346957330
O           -4.69229175444750        1.58951089784253       -2.23433506402014
C           -4.00445403303039       -0.42500474098626       -0.21507083343729
O           -4.56418163906133       -1.65361913590953       -0.61168482985372
C           -3.27682318036391       -0.65807614361473        1.12021752527877
O           -4.14258025363887       -1.07971664805740        2.13894684585514
C           -2.49885782230278        0.60555997837006        1.51454245521309
O           -1.82758240398355        0.46329004338382        2.73582872662086
C            1.37184971891757        1.14704835289962        1.30034252315377
O            0.76597878940836        2.40614073184965        1.49286628545183
C            2.89345577183802        1.34730931674395        1.17189139318734
O            3.40630933019073        1.90288564967504        2.35268769882787
H            5.33454249872843       -1.30202056648309       -0.69192242466115
H            5.65993329324099       -1.57456020628088        1.04471400481390
H            6.71452886171726       -0.47909364785305        0.09922937957944
H            3.44649218087762       -0.72802383513503        1.55420655896101
H            1.55825397099506       -1.49892076852567        0.55971844185803
H            1.15622812242009       -0.75145622757255       -2.37072080686476
H           -0.58261325286356       -1.52167157193433       -0.72233204634933
H           -0.05258257326266       -3.00299593028709       -1.11085675589161
H            0.83065462235251        1.16310147642353       -0.78634588891319
H           -1.07447347345842        1.96153588078848        0.59362469504401
H           -2.36602490108621       -0.75051867664364       -1.58296404679784
H           -3.00421818566250        0.95632474512644       -3.24613429773800
H           -4.30429860219213       -0.23164607772735       -2.99063541871958
H           -4.21865961207591        2.36810403404405       -1.91051574752586
H           -4.78098601540590        0.33765050335681       -0.06628458697457
H           -5.32058282858254       -1.50371713496112       -1.19377061630262
H           -2.57986797297443       -1.49311576172122        0.99137370841581
H           -4.81811662646257       -0.40720589414204        2.30653898454222
H           -3.19448320521600        1.44218314394858        1.64994039666964
H           -1.46297646774059       -0.43110339505999        2.79860617934668
H            1.16309522466583        0.50537301209546        2.17344627302329
H            1.30098379839669        2.90278143654911        2.13437810287386
H            3.08836997112983        2.08288039121039        0.38336881324985
H            3.51185043812627        1.21967309539061        3.03142896906293
