48
 energy: -84.630466733520 gnorm: 0.000468855257 xtb: 6.7.1 (edcfbbe)
C            5.37673231235714       -1.40705680588704        0.89488670016938
O            4.78592853589846       -0.12022017175389        1.06595273401006
C            3.40612653363704       -0.11183985717824        0.95772325601082
O            3.03222088762774       -0.49475396230673       -0.33848191644347
C            1.64267552062684       -0.70016538452257       -0.50235168199522
C            1.53035695498868       -1.15126602610701       -1.95448748224566
O            0.01717756182678       -1.30392916882743       -2.28469175767200
C            0.80976731349899        0.56216305716415       -0.11248955444285
O           -0.47916973422204        0.04946585179827        0.20840025105390
C           -1.50612332732837        0.99380331948836        0.38017720170198
O           -2.28630414330787        1.06101061322416       -0.77520629601305
C           -2.93453639155718       -0.18741193603899       -1.10597519307792
C           -3.49582240880058       -0.03512156884798       -2.50528401570833
O           -4.37441668237206        1.29594161307485       -2.41707538706650
C           -3.90614164653208       -0.55656986619067        0.04257328940726
O           -4.61169096795380       -1.75053404596892       -0.20960168392190
C           -3.10771032411052       -0.67378033209908        1.34794846128292
O           -3.94322537820745       -0.93036812924541        2.45749978458681
C           -2.36106241957995        0.63366902503647        1.60626093134894
O           -1.52445101207933        0.56217814580498        2.73032387622959
C            1.36820162676553        1.32996165414061        1.10166821052933
O            0.92098898828221        2.66914787404052        1.03159407857496
C            2.90006548212483        1.31143643487131        1.20771947947506
O            3.31068414994341        1.86467268660967        2.42992286546340
H            5.13877108951589       -1.80394680865701       -0.09286675591488
H            5.01434295479156       -2.09341524834354        1.66613940175176
H            6.44536043374314       -1.24682303704526        0.99937845694703
H            2.94866579695707       -0.81621909957024        1.69224337672111
H            1.30471235851220       -1.49647075311270        0.18589089572422
H            1.86030919876091       -0.27940922690082       -2.55625134262526
H           -0.45141403292334       -0.46217269558978       -2.46246791565264
H            0.01294293434312       -1.85186224599814       -3.09771119355316
H            0.74957334693664        1.26858008583908       -0.95292241702886
H           -1.08947253982260        1.99705377508811        0.51993296506145
H           -2.17938394163896       -0.98727285958856       -1.13497487117450
H           -4.50613147281157        1.55973072571500       -3.35059745560836
H           -4.28205162420672       -0.80713942876751       -2.61193800880351
H           -3.74333130816748        1.91946663702771       -2.00246745222798
H           -4.67347491261251        0.21775807338582        0.15867012216474
H           -3.99151098721689       -2.43356646285613       -0.50574111460647
H           -2.36138715050685       -1.47994508650057        1.24676597669522
H           -4.62286281903687       -1.56493496159877        2.18225724210988
H           -3.10553088961286        1.43593568591292        1.74014711026246
H           -2.04585868790589        0.19332444558594        3.46105651813189
H            0.94777292808985        0.84991630279588        2.00277830934716
H            1.39760968685210        3.18215621588928        1.70422079175441
H            3.32959677618457        1.95099074733316        0.42880291754010
H            3.16606441395835        1.23276119427198        3.14926426422696
