48
 energy: -84.858887551922 gnorm: 0.000574361773 xtb: 6.7.1 (edcfbbe)
C            5.58638053040051       -1.11473726982198        0.51023662242806
O            4.87494617334582        0.11263774581340        0.65313899617454
C            3.50537000167093       -0.02738954161370        0.78344976778146
O            2.96133350201349       -0.49607799664328       -0.43083141122336
C            1.56848852621304       -0.71089291440197       -0.35649196393759
C            1.13165549936203       -1.27270783205927       -1.71728150224482
O            1.31265687502685       -0.35918845456351       -2.76390097063404
C            0.78612108264513        0.56882502184089       -0.00964274452655
O           -0.53117902442511        0.11023205633951        0.25542339782021
C           -1.53101592405656        1.08830364330561        0.39208295230045
O           -2.27929805595375        1.22348931051803       -0.78942078932112
C           -2.92982472146892        0.02832638805655       -1.19968190282913
C           -3.66836476753425        0.36932593392310       -2.50387854695027
O           -4.27261219280607       -0.75673159849101       -3.09101905591158
C           -3.89820277732509       -0.49002537942786       -0.11857810892079
O           -4.45610298542963       -1.72819563651065       -0.47358219861197
C           -3.14042031421064       -0.65149765245031        1.20402596498531
O           -3.94895620447781       -1.07856066469083        2.27172384407528
C           -2.45423238858171        0.67966624618117        1.55238228379068
O           -1.70546501728980        0.58035620057816        2.73193403646530
C            1.39483616184448        1.29148892067269        1.20316441963413
O            0.88043591674700        2.60105973337072        1.25999072671488
C            2.92615976522723        1.35270749473013        1.11249314496292
O            3.39966144107689        1.83376556634985        2.34240197946344
H            5.27005961804402       -1.63790971191637       -0.39279538792003
H            5.42029656037144       -1.75123382299041        1.38369076285945
H            6.63303656844810       -0.83441622689691        0.43915830310452
H            3.25222153095705       -0.74313751922785        1.59428428067437
H            1.34468113903765       -1.45043685632108        0.42755493733027
H            1.69048167973431       -2.19711847148074       -1.90483737294716
H            0.06530399906483       -1.49471646117894       -1.67274527097463
H            2.25404384915147       -0.13865259200390       -2.81715664144663
H            0.78210791731456        1.25638081613595       -0.86653894161025
H           -1.09836627570324        2.07380377325345        0.58175194240515
H           -2.17826979338353       -0.75368436456884       -1.38433382975185
H           -4.47127321771689        1.07584556414713       -2.28082040131869
H           -2.96014812762854        0.85564748660055       -3.18060508948876
H           -3.60165669438481       -1.29196305077921       -3.53797347714567
H           -4.69386869376610        0.26344691713167        0.02348977569659
H           -4.79649319915739       -1.66000024177628       -1.38520492776354
H           -2.37103973926347       -1.42236996845770        1.08710807483330
H           -4.81501449936887       -0.64810154825775        2.22563785799104
H           -3.22076132049061        1.46672533473750        1.65630247652917
H           -2.18821233223544       -0.00926384865091        3.33653093449556
H            1.11267228749321        0.73643800686470        2.11083068225409
H            1.28965605986341        3.05421115149661        2.01419195283865
H            3.20406774504006        2.03161790987551        0.29223320491170
H            4.36773684931528        1.87167842673077        2.31519216276151
