48
Coordinates from ORCA-job 3_opt_3c E -1337.100243023016
  C           5.64410075408874     -0.82970162219784      0.01802779781477
  O           4.87131995278296      0.25166043388144      0.56709172053850
  C           3.52884628025482     -0.05438804007886      0.74335657617365
  O           2.88861198965335     -0.05413950075034     -0.53658562129789
  C           1.49712323050401     -0.39605368064463     -0.46552281175330
  C           0.99975961640653     -0.48485931152509     -1.89741401178444
  O           1.09137489616215      0.75860741470067     -2.59314810665886
  C           0.76943764351568      0.66755237435073      0.36343542703161
  O          -0.59642002427694      0.27705518536527      0.54706882162746
  C          -1.58940824982706      1.24037996708908      0.24406598120436
  O          -2.16032379786312      1.01265701230967     -1.03157373634922
  C          -2.84397715049448     -0.25193283943509     -1.16445876651543
  C          -3.32662920165016     -0.31368189103559     -2.60208066830376
  O          -4.27599499940706      0.70687912934235     -2.91369036783568
  C          -3.96523640565968     -0.35357888941508     -0.13270475033403
  O          -4.56251037932633     -1.64236331643076     -0.28220277801889
  C          -3.39373078170996     -0.15929154978265      1.26271961344896
  O          -4.49142825602241     -0.19933072833408      2.17989646843763
  C          -2.66654381719282      1.17971386237183      1.32743550706013
  O          -2.14303457695315      1.41756395463152      2.63063656682601
  C           1.41410080471306      0.77392532177862      1.73718934318697
  O           0.75222400436838      1.82486901024236      2.44769471408100
  C           2.90793449174531      1.02881908562824      1.62070987628841
  O           3.43696983835054      1.00295086320248      2.94406212553299
  H           5.33375898845147     -1.05345741934508     -1.00866603245613
  H           5.53952096251127     -1.72888542902381      0.63897359679871
  H           6.68455064760027     -0.50030980501729      0.02178034519264
  H           3.40417634505992     -1.05201154513841      1.21021811641710
  H           1.36751638909722     -1.38279237335191      0.01343738143221
  H           1.56741416117264     -1.27134722002089     -2.41598968626829
  H          -0.05643346615883     -0.76696491388375     -1.89332145013329
  H           2.02546899153785      1.00430410106052     -2.62434955378240
  H           0.82701789221930      1.63354391224899     -0.15720172294380
  H          -1.14907240441114      2.24453836819960      0.19150171782367
  H          -2.13747035759163     -1.08198171384772     -1.00180617264585
  H          -2.45021673677949     -0.25251337472010     -3.26524423314095
  H          -3.82338590709163     -1.27284476122087     -2.77298774764743
  H          -3.83989686282432      1.55753589611993     -2.77209130494923
  H          -4.70762756802990      0.43876041012603     -0.32568350907453
  H          -5.18623985993236     -1.74983271170436      0.44849791047910
  H          -2.68690069334163     -0.97590980041355      1.48264234190657
  H          -4.12385255424090     -0.15537673532033      3.07244359875173
  H          -3.39321127028576      1.97583335540714      1.10623791708064
  H          -1.17141536224192      1.33981726459158      2.59663829142599
  H           1.26306910103706     -0.18403815899815      2.26489459080111
  H           1.15372886463737      1.88019331884246      3.32640645519085
  H           3.08476868057843      2.00577595057965      1.14146319910902
  H           4.35205815686435      1.30989913956604      2.90329503023164
