      -----------------------------------------------------------      
     |                   =====================                   |     
     |                           x T B                           |     
     |                   =====================                   |     
     |                         S. Grimme                         |     
     |          Mulliken Center for Theoretical Chemistry        |     
     |                    University of Bonn                     |     
      -----------------------------------------------------------      

   * xtb version 6.7.1 (edcfbbe) compiled by 'conda@5dfe00f5fb80' on 2026-06-10

   xtb is free software: you can redistribute it and/or modify it under
   the terms of the GNU Lesser General Public License as published by
   the Free Software Foundation, either version 3 of the License, or
   (at your option) any later version.
   
   xtb is distributed in the hope that it will be useful,
   but WITHOUT ANY WARRANTY; without even the implied warranty of
   MERCHANTABILITY or FITNESS FOR A PARTICULAR PURPOSE.  See the
   GNU Lesser General Public License for more details.
   
   Cite this work as:
   * C. Bannwarth, E. Caldeweyher, S. Ehlert, A. Hansen, P. Pracht,
     J. Seibert, S. Spicher, S. Grimme, WIREs Comput. Mol. Sci., 2020, 11,
     e01493. DOI: 10.1002/wcms.1493
   
   for GFN2-xTB:
   * C. Bannwarth, S. Ehlert and S. Grimme., J. Chem. Theory Comput., 2019,
     15, 1652-1671. DOI: 10.1021/acs.jctc.8b01176
   for GFN1-xTB:
   * S. Grimme, C. Bannwarth, P. Shushkov, J. Chem. Theory Comput., 2017,
     13, 1989-2009. DOI: 10.1021/acs.jctc.7b00118
   for GFN0-xTB:
   * P. Pracht, E. Caldeweyher, S. Ehlert, S. Grimme, ChemRxiv, 2019, preprint.
     DOI: 10.26434/chemrxiv.8326202.v1
   for GFN-FF:
   * S. Spicher and S. Grimme, Angew. Chem. Int. Ed., 2020, 59, 15665-15673.
     DOI: 10.1002/anie.202004239
   
   for ALPB and GBSA implicit solvation:
   * S. Ehlert, M. Stahn, S. Spicher, S. Grimme, J. Chem. Theory Comput.,
     2021, 17, 4250-4261. DOI: 10.1021/acs.jctc.1c00471
   
   for ddCOSMO and CPCM-X implicit solvation:
   * M. Stahn, S. Ehlert, S. Grimme, J. Phys. Chem. A,
     2023, XX, XXXX-XXXX. DOI: 10.1021/acs.jpca.3c04382
   
   for DFT-D4:
   * E. Caldeweyher, C. Bannwarth and S. Grimme, J. Chem. Phys., 2017,
     147, 034112. DOI: 10.1063/1.4993215
   * E. Caldeweyher, S. Ehlert, A. Hansen, H. Neugebauer, S. Spicher,
     C. Bannwarth and S. Grimme, J. Chem. Phys., 2019, 150, 154122.
     DOI: 10.1063/1.5090222
   * E. Caldeweyher, J.-M. Mewes, S. Ehlert and S. Grimme, Phys. Chem. Chem. Phys.
     2020, 22, 8499-8512. DOI: 10.1039/D0CP00502A
   
   for sTDA-xTB:
   * S. Grimme and C. Bannwarth, J. Chem. Phys., 2016, 145, 054103.
     DOI: 10.1063/1.4959605
   
   in the mass-spec context:
   * V. Asgeirsson, C. Bauer and S. Grimme, Chem. Sci., 2017, 8, 4879.
     DOI: 10.1039/c7sc00601b
   * J. Koopman and S. Grimme, ACS Omega 2019, 4, 12, 15120-15133.
     DOI: 10.1021/acsomega.9b02011
   
   for metadynamics refer to:
   * S. Grimme, J. Chem. Theory Comput., 2019, 155, 2847-2862
     DOI: 10.1021/acs.jctc.9b00143
   
   for SPH calculations refer to:
   * S. Spicher and S. Grimme, J. Chem. Theory Comput., 2021, 17, 1701-1714
     DOI: 10.1021/acs.jctc.0c01306
   
   for ONIOM refer to:
   * C. Plett, A. Katbashev, S. Ehlert, S. Grimme, M. Bursch,
     Phys. Chem. Chem. Phys., 2023, 25, 17860-17868. DOI: 10.1039/D3CP02178E
   
   for DIPRO refer to:
   * J. Kohn, N. Gildemeister, S. Grimme, D. Fazzi, A. Hansen,
     J. Chem. Phys., 2023, just accepted.
   
   for PTB refer to:
   * S. Grimme, M. Mueller, A. Hansen, J. Chem. Phys., 2023, 158, 124111.
     DOI: 10.1063/5.0137838
   
   with help from (in alphabetical order)
   P. Atkinson, C. Bannwarth, F. Bohle, G. Brandenburg, E. Caldeweyher
   M. Checinski, S. Dohm, S. Ehlert, S. Ehrlich, I. Gerasimov, C. Hölzer
   A. Katbashev, J. Kohn, J. Koopman, C. Lavigne, S. Lehtola, F. März, M. Müller,
   F. Musil, H. Neugebauer, J. Pisarek, C. Plett, P. Pracht, F. Pultar,
   J. Seibert, P. Shushkov, S. Spicher, M. Stahn, M. Steiner, T. Strunk,
   J. Stückrath, T. Rose, and J. Unsleber
   
 * started run on 2026/09/22 at 12:57:21.988     
   ID    Z sym.   atoms
    1    6 C      1, 3, 5, 6, 8, 10, 12, 13, 15, 17, 19, 21, 23
    2    8 O      2, 4, 7, 9, 11, 14, 16, 18, 20, 22, 24
    3    1 H      25-48

           -------------------------------------------------
          |                Calculation Setup                |
           -------------------------------------------------

          program call               : /media/aldo/Aldo/envs/chem/bin/xtb ../../maltose_a.xyz --gfn 2 --gbsa water --opt normal
          coordinate file            : ../../maltose_a.xyz
          omp threads                :                     1


           -------------------------------------------------
          |                 G F N 2 - x T B                 |
           -------------------------------------------------

        Reference                      10.1021/acs.jctc.8b01176
      * Hamiltonian:
        H0-scaling (s, p, d)           1.850000    2.230000    2.230000
        zeta-weighting                 0.500000
      * Dispersion:
        s8                             2.700000
        a1                             0.520000
        a2                             5.000000
        s9                             5.000000
      * Repulsion:
        kExp                           1.500000    1.000000
        rExp                           1.000000
      * Coulomb:
        alpha                          2.000000
        third order                    shell-resolved
        anisotropic                    true
        a3                             3.000000
        a5                             4.000000
        cn-shift                       1.200000
        cn-exp                         4.000000
        max-rad                        5.000000

      * Solvation model:               GBSA
        Solvent                        water
        Parameter file                 internal GFN2-xTB/GBSA
        Dielectric constant                8.0200E+01
        Reference state                gsolv [1 M gas/solution]
        Free energy shift                  1.8574E-03 Eh       1.1656E+00 kcal/mol
        Temperature                        2.9815E+02 K
        Density                            1.0000E+00 kg/L
        Solvent mass                       1.8000E+01 g/mol
        Interaction kernel             Still
        Born radius scaling (c1)           1.5524E+00
        Born radii integrator          GBOBC
        Born offset                        2.4628E-02 a0       4.6540E-02 AA
        H-bond correction              true
        Ion screening                  false
        Surface tension                    1.0000E-05 Eh       1.5569E+01 dyn/cm
        Grid points                               230 per atom

          ...................................................
          :                      SETUP                      :
          :.................................................:
          :  # basis functions                 120          :
          :  # atomic orbitals                 120          :
          :  # shells                           72          :
          :  # electrons                       142          :
          :  max. iterations                   250          :
          :  Hamiltonian                  GFN2-xTB          :
          :  restarted?                      false          :
          :  GBSA solvation                   true          :
          :  PC potential                    false          :
          :  electronic temp.          300.0000000     K    :
          :  accuracy                    1.0000000          :
          :  -> integral cutoff          0.2500000E+02      :
          :  -> integral neglect         0.1000000E-07      :
          :  -> SCF convergence          0.1000000E-05 Eh   :
          :  -> wf. convergence          0.1000000E-03 e    :
          :  Broyden damping             0.4000000          :
          :  net charge                          0          :
          :  unpaired electrons                  0          :
          ...................................................

 iter      E             dE          RMSdq      gap      omega  full diag
   1    -85.3691967 -0.853692E+02  0.471E+00    9.80       0.0  T
   2    -85.4591944 -0.899977E-01  0.251E+00    9.51       1.0  T
   3    -85.4618679 -0.267346E-02  0.768E-01    9.60       1.0  T
   4    -85.4636793 -0.181145E-02  0.168E-01    9.53       1.0  T
   5    -85.4638534 -0.174124E-03  0.841E-02    9.56       1.0  T
   6    -85.4638775 -0.240287E-04  0.203E-02    9.56       1.0  T
   7    -85.4638798 -0.229450E-05  0.829E-03    9.56       1.7  T
   8    -85.4638803 -0.504641E-06  0.241E-03    9.56       6.0  T
   9    -85.4638803 -0.277000E-07  0.123E-03    9.56      11.7  T
  10    -85.4638803 -0.843244E-08  0.326E-04    9.56      44.3  T
  11    -85.4638803 -0.840643E-09  0.139E-04    9.56     103.8  T

   *** convergence criteria satisfied after 11 iterations ***

         #    Occupation            Energy/Eh            Energy/eV
      -------------------------------------------------------------
         1        2.0000           -0.7426777             -20.2093
       ...           ...                  ...                  ...
        65        2.0000           -0.4313730             -11.7383
        66        2.0000           -0.4303019             -11.7091
        67        2.0000           -0.4270021             -11.6193
        68        2.0000           -0.4248968             -11.5620
        69        2.0000           -0.4238752             -11.5342
        70        2.0000           -0.4133475             -11.2478
        71        2.0000           -0.4088250             -11.1247 (HOMO)
        72                         -0.0575094              -1.5649 (LUMO)
        73                         -0.0333510              -0.9075
        74                         -0.0157106              -0.4275
        75                         -0.0056915              -0.1549
        76                          0.0011109               0.0302
       ...                                ...                  ...
       120                          0.3140227               8.5450
      -------------------------------------------------------------
                  HL-Gap            0.3513156 Eh            9.5598 eV
             Fermi-level           -0.2331672 Eh           -6.3448 eV

 SCC (total)                   0 d,  0 h,  0 min,  0.098 sec
 SCC setup                      ...        0 min,  0.003 sec (  2.725%)
 Dispersion                     ...        0 min,  0.001 sec (  1.350%)
 classical contributions        ...        0 min,  0.000 sec (  0.161%)
 integral evaluation            ...        0 min,  0.015 sec ( 14.821%)
 iterations                     ...        0 min,  0.047 sec ( 47.798%)
 molecular gradient             ...        0 min,  0.032 sec ( 32.221%)
 printout                       ...        0 min,  0.001 sec (  0.905%)

         :::::::::::::::::::::::::::::::::::::::::::::::::::::
         ::                     SUMMARY                     ::
         :::::::::::::::::::::::::::::::::::::::::::::::::::::
         :: total energy             -84.847364337172 Eh    ::
         :: total w/o Gsasa/hb       -84.826536868337 Eh    ::
         :: gradient norm              0.007768327673 Eh/a0 ::
         :: HOMO-LUMO gap              9.559784645872 eV    ::
         ::.................................................::
         :: SCC energy               -85.463099331247 Eh    ::
         :: -> isotropic ES            0.263076860077 Eh    ::
         :: -> anisotropic ES         -0.015843695067 Eh    ::
         :: -> anisotropic XC         -0.016772418626 Eh    ::
         :: -> dispersion             -0.047183307030 Eh    ::
         :: -> Gsolv                  -0.033058181173 Eh    ::
         ::    -> Gelec               -0.012230712338 Eh    ::
         ::    -> Gsasa               -0.000918445419 Eh    ::
         ::    -> Ghb                 -0.021766466543 Eh    ::
         ::    -> Gshift               0.001857443127 Eh    ::
         :: repulsion energy           0.615734994075 Eh    ::
         :: add. restraining           0.000000000000 Eh    ::
         :: total charge              -0.000000000000 e     ::
         :::::::::::::::::::::::::::::::::::::::::::::::::::::

      ----------------------------------------------------------- 
     |                   =====================                   |
     |                        A N C O P T                        |
     |                   =====================                   |
     |               Approximate Normal Coordinate               |
     |                Rational Function Optimizer                |
      ----------------------------------------------------------- 
      ----------------------------------------------------------- 
     |                   =====================                   |
     |                        A N C O P T                        |
     |                   =====================                   |
     |               Approximate Normal Coordinate               |
     |                Rational Function Optimizer                |
      ----------------------------------------------------------- 

          ...................................................
          :                      SETUP                      :
          :.................................................:
          :   optimization level            normal          :
          :   max. optcycles                   200          :
          :   ANC micro-cycles                  20          :
          :   degrees of freedom               138          :
          :.................................................:
          :   RF solver                   davidson          :
          :   write xtbopt.log                true          :
          :   linear?                        false          :
          :   energy convergence         0.5000000E-05 Eh   :
          :   grad. convergence          0.1000000E-02 Eh/α :
          :   maxmium RF displ.          1.0000000          :
          :   Hlow (freq-cutoff)         0.1000000E-01      :
          :   Hmax (freq-cutoff)         5.0000000          :
          :   S6 in model hess.         20.0000000          :
          ...................................................

generating ANC from exact Hessian ...
Using Lindh-Hessian (1995)
 Shifting diagonal of input Hessian by    9.6314911723678429E-003
 Lowest  eigenvalues of input Hessian
    0.000000    0.000000    0.000000    0.000000    0.000000    0.000000
    0.010000    0.010113    0.010876    0.011177    0.012430    0.013122
    0.013461    0.013755    0.014622    0.015147    0.015310    0.015798
 Highest eigenvalues
    1.528628    1.529442    1.558441    1.569589    1.672027    1.693481


........................................................................
.............................. CYCLE    1 ..............................
........................................................................

 iter      E             dE          RMSdq      gap      omega  full diag
   1    -85.4638803 -0.854639E+02  0.616E-05    9.56       0.0  T
   2    -85.4638803 -0.112834E-10  0.391E-05    9.56     369.3  T
   3    -85.4638803 -0.517275E-11  0.114E-05    9.56    1267.8  T
     SCC iter.                  ...        0 min,  0.010 sec
     gradient                   ...        0 min,  0.031 sec
 * total energy  :   -84.8473643 Eh     change       -0.1329141E-09 Eh
   gradient norm :     0.0077667 Eh/α   predicted     0.0000000E+00 (-100.00%)
   displ. norm   :     0.0471509 α      lambda       -0.1135333E-03
   maximum displ.:     0.0188833 α      in ANC's #5, #16, #6, ...

........................................................................
.............................. CYCLE    2 ..............................
........................................................................

 iter      E             dE          RMSdq      gap      omega  full diag
   1    -85.4645661 -0.854646E+02  0.139E-02    9.57       0.0  T
   2    -85.4645665 -0.373918E-06  0.841E-03    9.57       1.7  T
   3    -85.4645665  0.101397E-08  0.168E-03    9.57       8.6  T
   4    -85.4645665 -0.451155E-07  0.425E-04    9.57      34.0  T
   5    -85.4645665 -0.148644E-08  0.174E-04    9.57      82.8  T
     SCC iter.                  ...        0 min,  0.022 sec
     gradient                   ...        0 min,  0.034 sec
 * total energy  :   -84.8474507 Eh     change       -0.8640385E-04 Eh
   gradient norm :     0.0033136 Eh/α   predicted    -0.5762850E-04 ( -33.30%)
   displ. norm   :     0.0794366 α      lambda       -0.8354284E-04
   maximum displ.:     0.0339813 α      in ANC's #5, #1, #6, ...

........................................................................
.............................. CYCLE    3 ..............................
........................................................................

 iter      E             dE          RMSdq      gap      omega  full diag
   1    -85.4649607 -0.854650E+02  0.183E-02    9.60       0.0  T
   2    -85.4649613 -0.643080E-06  0.112E-02    9.59       1.3  T
   3    -85.4649614 -0.124293E-07  0.224E-03    9.59       6.4  T
   4    -85.4649614 -0.747106E-07  0.573E-04    9.59      25.2  T
   5    -85.4649614 -0.258456E-08  0.244E-04    9.59      59.1  T
     SCC iter.                  ...        0 min,  0.017 sec
     gradient                   ...        0 min,  0.031 sec
 * total energy  :   -84.8475014 Eh     change       -0.5067506E-04 Eh
   gradient norm :     0.0016316 Eh/α   predicted    -0.4203518E-04 ( -17.05%)
   displ. norm   :     0.0730070 α      lambda       -0.1849255E-04
   maximum displ.:     0.0358596 α      in ANC's #1, #5, #6, ...

........................................................................
.............................. CYCLE    4 ..............................
........................................................................

 iter      E             dE          RMSdq      gap      omega  full diag
   1    -85.4648219 -0.854648E+02  0.151E-02    9.60       0.0  T
   2    -85.4648221 -0.184004E-06  0.920E-03    9.60       1.6  T
   3    -85.4648221 -0.283755E-07  0.108E-03    9.60      13.3  T
   4    -85.4648221 -0.198826E-07  0.439E-04    9.60      32.8  T
   5    -85.4648221 -0.838853E-09  0.186E-04    9.60      77.7  T
     SCC iter.                  ...        0 min,  0.015 sec
     gradient                   ...        0 min,  0.032 sec
 * total energy  :   -84.8475207 Eh     change       -0.1927430E-04 Eh
   gradient norm :     0.0018981 Eh/α   predicted    -0.9488147E-05 ( -50.77%)
   displ. norm   :     0.0717010 α      lambda       -0.1574609E-04
   maximum displ.:     0.0447181 α      in ANC's #1, #5, #12, ...

........................................................................
.............................. CYCLE    5 ..............................
........................................................................

 iter      E             dE          RMSdq      gap      omega  full diag
   1    -85.4646209 -0.854646E+02  0.149E-02    9.60       0.0  T
   2    -85.4646210 -0.870660E-07  0.906E-03    9.60       1.6  T
   3    -85.4646210 -0.288199E-07  0.749E-04    9.60      19.3  T
   4    -85.4646211 -0.759182E-08  0.399E-04    9.60      36.2  T
     SCC iter.                  ...        0 min,  0.013 sec
     gradient                   ...        0 min,  0.031 sec
 * total energy  :   -84.8475370 Eh     change       -0.1634414E-04 Eh
   gradient norm :     0.0010962 Eh/α   predicted    -0.7914621E-05 ( -51.58%)
   displ. norm   :     0.0574983 α      lambda       -0.7738322E-05
   maximum displ.:     0.0432842 α      in ANC's #1, #11, #10, ...

........................................................................
.............................. CYCLE    6 ..............................
........................................................................

 iter      E             dE          RMSdq      gap      omega  full diag
   1    -85.4647034 -0.854647E+02  0.116E-02    9.60       0.0  T
   2    -85.4647035 -0.691568E-07  0.701E-03    9.60       2.1  T
   3    -85.4647035 -0.102456E-07  0.705E-04    9.60      20.5  T
   4    -85.4647035 -0.101935E-07  0.309E-04    9.60      46.7  T
     SCC iter.                  ...        0 min,  0.013 sec
     gradient                   ...        0 min,  0.032 sec
 * total energy  :   -84.8475457 Eh     change       -0.8673619E-05 Eh
   gradient norm :     0.0006984 Eh/α   predicted    -0.3875808E-05 ( -55.31%)
   displ. norm   :     0.0474730 α      lambda       -0.5037199E-05
   maximum displ.:     0.0388807 α      in ANC's #1, #11, #13, ...

........................................................................
.............................. CYCLE    7 ..............................
........................................................................

 iter      E             dE          RMSdq      gap      omega  full diag
   1    -85.4648448 -0.854648E+02  0.891E-03    9.60       0.0  T
   2    -85.4648448 -0.350177E-07  0.537E-03    9.60       2.7  T
   3    -85.4648448 -0.523970E-08  0.508E-04    9.60      28.4  T
   4    -85.4648448 -0.540055E-08  0.225E-04    9.60      64.0  T
     SCC iter.                  ...        0 min,  0.012 sec
     gradient                   ...        0 min,  0.031 sec
 * total energy  :   -84.8475521 Eh     change       -0.6357187E-05 Eh
   gradient norm :     0.0005682 Eh/α   predicted    -0.2525899E-05 ( -60.27%)
   displ. norm   :     0.0506522 α      lambda       -0.5058420E-05
   maximum displ.:     0.0404645 α      in ANC's #1, #11, #4, ...

........................................................................
.............................. CYCLE    8 ..............................
........................................................................

 iter      E             dE          RMSdq      gap      omega  full diag
   1    -85.4649376 -0.854649E+02  0.884E-03    9.60       0.0  T
   2    -85.4649377 -0.234632E-07  0.531E-03    9.60       2.7  T
   3    -85.4649377 -0.572888E-08  0.415E-04    9.60      34.8  T
   4    -85.4649377 -0.303282E-08  0.208E-04    9.60      69.4  T
     SCC iter.                  ...        0 min,  0.013 sec
     gradient                   ...        0 min,  0.031 sec
 * total energy  :   -84.8475588 Eh     change       -0.6758805E-05 Eh
   gradient norm :     0.0006902 Eh/α   predicted    -0.2534772E-05 ( -62.50%)
   displ. norm   :     0.0675225 α      lambda       -0.6372506E-05
   maximum displ.:     0.0517605 α      in ANC's #1, #4, #11, ...

........................................................................
.............................. CYCLE    9 ..............................
........................................................................

 iter      E             dE          RMSdq      gap      omega  full diag
   1    -85.4649644 -0.854650E+02  0.119E-02    9.60       0.0  T
   2    -85.4649645 -0.288893E-07  0.713E-03    9.60       2.0  T
   3    -85.4649645 -0.108252E-07  0.436E-04    9.60      33.1  T
   4    -85.4649645 -0.192861E-08  0.241E-04    9.60      59.9  T
     SCC iter.                  ...        0 min,  0.013 sec
     gradient                   ...        0 min,  0.031 sec
 * total energy  :   -84.8475674 Eh     change       -0.8582508E-05 Eh
   gradient norm :     0.0007563 Eh/α   predicted    -0.3193719E-05 ( -62.79%)
   displ. norm   :     0.0890451 α      lambda       -0.7723891E-05
   maximum displ.:     0.0672348 α      in ANC's #1, #4, #11, ...

........................................................................
.............................. CYCLE   10 ..............................
........................................................................

 iter      E             dE          RMSdq      gap      omega  full diag
   1    -85.4649186 -0.854649E+02  0.156E-02    9.60       0.0  T
   2    -85.4649187 -0.498996E-07  0.940E-03    9.60       1.5  T
   3    -85.4649187 -0.196356E-07  0.564E-04    9.60      25.6  T
   4    -85.4649187 -0.286109E-08  0.317E-04    9.60      45.5  T
     SCC iter.                  ...        0 min,  0.013 sec
     gradient                   ...        0 min,  0.031 sec
 * total energy  :   -84.8475777 Eh     change       -0.1028585E-04 Eh
   gradient norm :     0.0006445 Eh/α   predicted    -0.3876089E-05 ( -62.32%)
   displ. norm   :     0.1012959 α      lambda       -0.7868763E-05
   maximum displ.:     0.0768468 α      in ANC's #1, #6, #4, ...

........................................................................
.............................. CYCLE   11 ..............................
........................................................................

 iter      E             dE          RMSdq      gap      omega  full diag
   1    -85.4648644 -0.854649E+02  0.184E-02    9.60       0.0  T
   2    -85.4648645 -0.604515E-07  0.111E-02    9.60       1.3  T
   3    -85.4648645 -0.267065E-07  0.623E-04    9.60      23.2  T
   4    -85.4648645 -0.281646E-08  0.354E-04    9.60      40.7  T
     SCC iter.                  ...        0 min,  0.013 sec
     gradient                   ...        0 min,  0.039 sec
 * total energy  :   -84.8475882 Eh     change       -0.1047474E-04 Eh
   gradient norm :     0.0004932 Eh/α   predicted    -0.3957289E-05 ( -62.22%)
   displ. norm   :     0.0960510 α      lambda       -0.6789411E-05
   maximum displ.:     0.0738683 α      in ANC's #1, #6, #11, ...

........................................................................
.............................. CYCLE   12 ..............................
........................................................................

 iter      E             dE          RMSdq      gap      omega  full diag
   1    -85.4648432 -0.854648E+02  0.177E-02    9.60       0.0  T
   2    -85.4648433 -0.586065E-07  0.106E-02    9.60       1.4  T
   3    -85.4648433 -0.255399E-07  0.634E-04    9.60      22.8  T
   4    -85.4648433 -0.373490E-08  0.364E-04    9.60      39.6  T
     SCC iter.                  ...        0 min,  0.018 sec
     gradient                   ...        0 min,  0.032 sec
 * total energy  :   -84.8475975 Eh     change       -0.9301595E-05 Eh
   gradient norm :     0.0003993 Eh/α   predicted    -0.3411055E-05 ( -63.33%)
   displ. norm   :     0.0875468 α      lambda       -0.6007459E-05
   maximum displ.:     0.0683857 α      in ANC's #1, #6, #11, ...

........................................................................
.............................. CYCLE   13 ..............................
........................................................................

 iter      E             dE          RMSdq      gap      omega  full diag
   1    -85.4648625 -0.854649E+02  0.165E-02    9.60       0.0  T
   2    -85.4648625 -0.495543E-07  0.994E-03    9.60       1.5  T
   3    -85.4648625 -0.228521E-07  0.600E-04    9.60      24.1  T
   4    -85.4648625 -0.350495E-08  0.348E-04    9.60      41.5  T
     SCC iter.                  ...        0 min,  0.014 sec
     gradient                   ...        0 min,  0.032 sec
 * total energy  :   -84.8476058 Eh     change       -0.8317386E-05 Eh
   gradient norm :     0.0003650 Eh/α   predicted    -0.3017220E-05 ( -63.72%)
   displ. norm   :     0.0778678 α      lambda       -0.5275629E-05
   maximum displ.:     0.0618685 α      in ANC's #1, #6, #11, ...

........................................................................
.............................. CYCLE   14 ..............................
........................................................................

 iter      E             dE          RMSdq      gap      omega  full diag
   1    -85.4648982 -0.854649E+02  0.146E-02    9.60       0.0  T
   2    -85.4648983 -0.424162E-07  0.880E-03    9.60       1.6  T
   3    -85.4648983 -0.189900E-07  0.561E-04    9.60      25.7  T
   4    -85.4648983 -0.342547E-08  0.324E-04    9.60      44.6  T
     SCC iter.                  ...        0 min,  0.013 sec
     gradient                   ...        0 min,  0.034 sec
 * total energy  :   -84.8476132 Eh     change       -0.7372247E-05 Eh
   gradient norm :     0.0003240 Eh/α   predicted    -0.2647412E-05 ( -64.09%)
   displ. norm   :     0.0698940 α      lambda       -0.4660501E-05
   maximum displ.:     0.0562394 α      in ANC's #1, #2, #6, ...

........................................................................
.............................. CYCLE   15 ..............................
........................................................................

 iter      E             dE          RMSdq      gap      omega  full diag
   1    -85.4649446 -0.854649E+02  0.129E-02    9.60       0.0  T
   2    -85.4649446 -0.348765E-07  0.779E-03    9.60       1.9  T
   3    -85.4649446 -0.152669E-07  0.513E-04    9.60      28.1  T
   4    -85.4649446 -0.314915E-08  0.296E-04    9.60      48.8  T
     SCC iter.                  ...        0 min,  0.013 sec
     gradient                   ...        0 min,  0.031 sec
 * total energy  :   -84.8476198 Eh     change       -0.6645539E-05 Eh
   gradient norm :     0.0002870 Eh/α   predicted    -0.2337681E-05 ( -64.82%)
   displ. norm   :     0.0658977 α      lambda       -0.4345337E-05
   maximum displ.:     0.0529340 α      in ANC's #1, #2, #8, ...

........................................................................
.............................. CYCLE   16 ..............................
........................................................................

 iter      E             dE          RMSdq      gap      omega  full diag
   1    -85.4649722 -0.854650E+02  0.119E-02    9.60       0.0  T
   2    -85.4649723 -0.311168E-07  0.718E-03    9.60       2.0  T
   3    -85.4649723 -0.138866E-07  0.474E-04    9.60      30.4  T
   4    -85.4649723 -0.232968E-08  0.274E-04    9.60      52.7  T
     SCC iter.                  ...        0 min,  0.014 sec
     gradient                   ...        0 min,  0.031 sec
 * total energy  :   -84.8476260 Eh     change       -0.6204333E-05 Eh
   gradient norm :     0.0002505 Eh/α   predicted    -0.2179734E-05 ( -64.87%)
   displ. norm   :     0.0625057 α      lambda       -0.4043236E-05
   maximum displ.:     0.0498772 α      in ANC's #1, #2, #8, ...

........................................................................
.............................. CYCLE   17 ..............................
........................................................................

 iter      E             dE          RMSdq      gap      omega  full diag
   1    -85.4650134 -0.854650E+02  0.109E-02    9.60       0.0  T
   2    -85.4650134 -0.274306E-07  0.658E-03    9.60       2.2  T
   3    -85.4650134 -0.114102E-07  0.446E-04    9.60      32.4  T
   4    -85.4650134 -0.237814E-08  0.256E-04    9.60      56.5  T
     SCC iter.                  ...        0 min,  0.014 sec
     gradient                   ...        0 min,  0.031 sec
 * total energy  :   -84.8476318 Eh     change       -0.5778417E-05 Eh
   gradient norm :     0.0002244 Eh/α   predicted    -0.2026876E-05 ( -64.92%)
   displ. norm   :     0.0593826 α      lambda       -0.3750337E-05
   maximum displ.:     0.0468542 α      in ANC's #1, #2, #4, ...

........................................................................
.............................. CYCLE   18 ..............................
........................................................................

 iter      E             dE          RMSdq      gap      omega  full diag
   1    -85.4650349 -0.854650E+02  0.100E-02    9.60       0.0  T
   2    -85.4650349 -0.225431E-07  0.606E-03    9.60       2.4  T
   3    -85.4650349 -0.962073E-08  0.395E-04    9.60      36.6  T
   4    -85.4650349 -0.151991E-08  0.226E-04    9.60      63.9  T
     SCC iter.                  ...        0 min,  0.014 sec
     gradient                   ...        0 min,  0.032 sec
 * total energy  :   -84.8476372 Eh     change       -0.5409256E-05 Eh
   gradient norm :     0.0002186 Eh/α   predicted    -0.1879781E-05 ( -65.25%)
   displ. norm   :     0.0600403 α      lambda       -0.3704643E-05
   maximum displ.:     0.0466375 α      in ANC's #1, #2, #4, ...

........................................................................
.............................. CYCLE   19 ..............................
........................................................................

 iter      E             dE          RMSdq      gap      omega  full diag
   1    -85.4650438 -0.854650E+02  0.985E-03    9.60       0.0  T
   2    -85.4650438 -0.218423E-07  0.594E-03    9.60       2.4  T
   3    -85.4650438 -0.892450E-08  0.391E-04    9.60      36.9  T
   4    -85.4650438 -0.161175E-08  0.223E-04    9.60      64.7  T
     SCC iter.                  ...        0 min,  0.013 sec
     gradient                   ...        0 min,  0.031 sec
 * total energy  :   -84.8476425 Eh     change       -0.5323170E-05 Eh
   gradient norm :     0.0001983 Eh/α   predicted    -0.1856631E-05 ( -65.12%)
   displ. norm   :     0.0633672 α      lambda       -0.3715226E-05
   maximum displ.:     0.0486887 α      in ANC's #1, #2, #4, ...

........................................................................
.............................. CYCLE   20 ..............................
........................................................................

 iter      E             dE          RMSdq      gap      omega  full diag
   1    -85.4650464 -0.854650E+02  0.101E-02    9.60       0.0  T
   2    -85.4650464 -0.217047E-07  0.607E-03    9.60       2.4  T
   3    -85.4650464 -0.887762E-08  0.384E-04    9.60      37.6  T
   4    -85.4650464 -0.144200E-08  0.219E-04    9.60      65.9  T
     SCC iter.                  ...        0 min,  0.013 sec
     gradient                   ...        0 min,  0.032 sec
 * total energy  :   -84.8476478 Eh     change       -0.5254740E-05 Eh
   gradient norm :     0.0001731 Eh/α   predicted    -0.1861561E-05 ( -64.57%)
   displ. norm   :     0.0649190 α      lambda       -0.3483788E-05
   maximum displ.:     0.0497605 α      in ANC's #1, #2, #4, ...
 * RMSD in coord.:     0.1700911 α      energy gain  -0.2834369E-03 Eh

generating ANC from exact Hessian ...
Using Lindh-Hessian (1995)
 Shifting diagonal of input Hessian by    9.6074517304206349E-003
 Lowest  eigenvalues of input Hessian
    0.000000    0.000000    0.000000    0.000000    0.000000    0.000000
    0.010000    0.010090    0.010877    0.011211    0.012386    0.013182
    0.013465    0.013821    0.014641    0.015186    0.015338    0.015883
 Highest eigenvalues
    1.529975    1.533057    1.559946    1.571770    1.678088    1.700510


........................................................................
.............................. CYCLE   21 ..............................
........................................................................

 iter      E             dE          RMSdq      gap      omega  full diag
   1    -85.4650414 -0.854650E+02  0.102E-02    9.60       0.0  T
   2    -85.4650415 -0.222137E-07  0.617E-03    9.60       2.3  T
   3    -85.4650415 -0.929224E-08  0.397E-04    9.60      36.3  T
   4    -85.4650415 -0.149568E-08  0.227E-04    9.60      63.6  T
     SCC iter.                  ...        0 min,  0.016 sec
     gradient                   ...        0 min,  0.032 sec
 * total energy  :   -84.8476526 Eh     change       -0.4836969E-05 Eh
   gradient norm :     0.0001564 Eh/α   predicted     0.0000000E+00 (-100.00%)
   displ. norm   :     0.0134759 α      lambda       -0.3485322E-07
   maximum displ.:     0.0128552 α      in ANC's #1, #12, #9, ...

   *** GEOMETRY OPTIMIZATION CONVERGED AFTER 21 ITERATIONS ***

------------------------------------------------------------------------
 total energy gain   :        -0.0002883 Eh       -0.1809 kcal/mol
 total RMSD          :         0.1700911 a0        0.0900 Å
 total power (kW/mol):        -0.0360411 (step)   -0.5733 (real)
------------------------------------------------------------------------

 ANCopt (total)                0 d,  0 h,  0 min,  1.320 sec
 optimizer setup                ...        0 min,  0.000 sec (  0.029%)
 model hessian                  ...        0 min,  0.068 sec (  5.123%)
 ANC generation                 ...        0 min,  0.004 sec (  0.329%)
 coordinate transformation      ...        0 min,  0.001 sec (  0.085%)
 single point calculation       ...        0 min,  1.220 sec ( 92.399%)
 optimization log               ...        0 min,  0.004 sec (  0.274%)
 hessian update                 ...        0 min,  0.001 sec (  0.038%)
 rational function              ...        0 min,  0.007 sec (  0.540%)

================
 final structure:
================
48
 xtb: 6.7.1 (edcfbbe)
C            5.62250445726410        0.96726573871906        0.60486570376923
O            4.94085758133083       -0.08394887644360       -0.06877586987068
C            3.61445385045284        0.17589795616759       -0.34101602363729
O            2.89789724956521        0.16064115026805        0.87868635201012
C            1.50344073784510        0.35707110710217        0.76195313635470
C            0.92209082841950        0.34867780357331        2.18965325850070
O            0.59274446549891        1.62818014115593        2.66400365648501
C            0.88263323532992       -0.73800097733045       -0.12313138379187
O           -0.47992551962088       -0.46254848159977       -0.39607044393334
C           -1.45741678109131       -1.28962687987442        0.16683485894351
O           -1.99635100373957       -0.73975613593205        1.33545659384228
C           -2.61240733912467        0.53152411227433        1.12589738824756
C           -3.01803456960370        1.10392187771329        2.49635211463292
O           -2.27537060791822        2.23460991863772        2.86243692754407
C           -3.79530431679438        0.36771664286587        0.15980143920897
O           -4.50803630477748        1.55698529600773       -0.05177285172477
C           -3.27317518428520       -0.20308007149297       -1.17078382174370
O           -4.32229196837273       -0.45687467442296       -2.07398161136174
C           -2.54117722413937       -1.52014530853295       -0.90090282145716
O           -1.90619763329195       -2.02389063220921       -2.04627728021922
C            1.59059076155187       -0.78698871554641       -1.48361109133135
O            1.15750337389397       -1.88373426962668       -2.24676413446417
C            3.10943079147510       -0.90113877909911       -1.31142428559535
O            3.76414441873213       -0.71316751372017       -2.53546133877904
H            5.18931925183100        1.13934917110721        1.59226465470140
H            5.58068158830202        1.88899024457829        0.01602379859221
H            6.65181850562660        0.63243910842799        0.70041260182166
H            3.49169002207838        1.16977607158481       -0.82504753025181
H            1.29591980689836        1.32985511778556        0.28523913699562
H            1.65208851957497       -0.14527867654360        2.84026171262066
H           -0.00911001506500       -0.21995408390291        2.20593200125824
H            1.39624981956193        2.14820457030569        2.79393465901521
H            0.99369128166665       -1.71099346892753        0.37287529217484
H           -1.03031950054857       -2.25629624168492        0.46752289383071
H           -1.87590365532363        1.20949742315333        0.66697657239031
H           -2.92276169229052        0.29961644396087        3.23637361447944
H           -4.05928984670287        1.43330429366688        2.45968987033269
H           -1.33071357719210        2.01010540237301        2.91528568872557
H           -4.51648015253051       -0.33930616052079        0.58741133324809
H           -3.89346850233393        2.28234080596087       -0.22904802195769
H           -2.55603811505441        0.50705453557465       -1.61603121495884
H           -4.97101228023425        0.25675393731091       -1.98892440371798
H           -3.26730995211247       -2.24835818459334       -0.50847346836834
H           -2.55641991777567       -2.02834956631676       -2.76394900670801
H            1.37008243804438        0.15469101455019       -2.01424033741894
H            0.18464775414946       -1.89071225068274       -2.26648928143972
H            3.35258713350678       -1.88411171772782       -0.88187772771893
H            3.41744578732624       -1.36821221809267       -3.15860830927380

 Bond Distances (Angstroems)
 ---------------------------
C1-O2=1.4225         C1-H25=1.0919        C1-H26=1.0946        C1-H27=1.0866        O2-C1=1.4225         O2-C3=1.3788         
C3-O2=1.3788         C3-O4=1.4147         C3-C23=1.5352        C3-H28=1.1123        O4-C3=1.4147         O4-C5=1.4131         
C5-O4=1.4131         C5-C6=1.5415         C5-C8=1.5388         C5-H29=1.1030        C6-C5=1.5415         C6-O7=1.4038         
C6-H30=1.0955        C6-H31=1.0912        O7-C6=1.4038         O7-H32=0.9659        C8-C5=1.5388         C8-O9=1.4167         
C8-C21=1.5344        C8-H33=1.0978        O9-C8=1.4167         O9-C10=1.3987        C10-O9=1.3987        C10-O11=1.3995       
C10-C19=1.5387       C10-H34=1.0988       O11-C10=1.3995       O11-C12=1.4281       C12-O11=1.4281       C12-C13=1.5396       
C12-C15=1.5360       C12-H35=1.1012       C13-C12=1.5396       C13-O14=1.4014       C13-H36=1.0971       C13-H37=1.0927       
O14-C13=1.4014       O14-H38=0.9724       C15-C12=1.5360       C15-O16=1.4025       C15-C17=1.5391       C15-H39=1.0967       
O16-C15=1.4025       O16-H40=0.9671       C17-C15=1.5391       C17-O18=1.4074       C17-C19=1.5308       C17-H41=1.1031       
O18-C17=1.4074       O18-H42=0.9682       C19-C10=1.5387       C19-C17=1.5308       C19-O20=1.4032       C19-H43=1.1007       
O20-C19=1.4032       O20-H44=0.9684       C21-C8=1.5344        C21-O22=1.4046       C21-C23=1.5328       C21-H45=1.1032       
O22-C21=1.4046       O22-H46=0.9731       C23-C3=1.5352        C23-C21=1.5328       C23-O24=1.4008       C23-H47=1.0999       
O24-C23=1.4008       O24-H48=0.9683       H25-C1=1.0919        H26-C1=1.0946        H27-C1=1.0866        H28-C3=1.1123        
H29-C5=1.1030        H30-C6=1.0955        H31-C6=1.0912        H32-O7=0.9659        H33-C8=1.0978        H34-C10=1.0988       
H35-C12=1.1012       H36-C13=1.0971       H37-C13=1.0927       H38-O14=0.9724       H39-C15=1.0967       H40-O16=0.9671       
H41-C17=1.1031       H42-O18=0.9682       H43-C19=1.1007       H44-O20=0.9684       H45-C21=1.1032       H46-O22=0.9731       
H47-C23=1.0999       H48-O24=0.9683       
 C  H  Rav=1.0980 sigma=0.0058  Rmin=1.0866  Rmax=1.1123    17
 C  C  Rav=1.5367 sigma=0.0032  Rmin=1.5308  Rmax=1.5415    10
 O  H  Rav=0.9690 sigma=0.0025  Rmin=0.9659  Rmax=0.9731     7
 O  C  Rav=1.4064 sigma=0.0113  Rmin=1.3788  Rmax=1.4281    15

 selected bond angles (degree)
 --------------------
H25-C1-O2=110.77               H26-C1-O2=110.44               H26-C1-H25=109.79              H27-C1-O2=105.54               
H27-C1-H25=110.17              H27-C1-H26=110.06              C3-O2-C1=114.53                O4-C3-O2=108.36                
C23-C3-O2=108.00               C23-C3-O4=111.76               H28-C3-O2=111.13               H28-C3-O4=109.20               
H28-C3-C23=108.39              C5-O4-C3=115.28                C6-C5-O4=107.15                C8-C5-O4=110.29                
C8-C5-C6=112.13                H29-C5-O4=110.12               H29-C5-C6=109.52               H29-C5-C8=107.65               
O7-C6-C5=113.36                H30-C6-C5=107.53               H30-C6-O7=111.51               H31-C6-C5=109.78               
H31-C6-O7=105.65               H31-C6-H30=108.95              H32-O7-C6=109.94               O9-C8-C5=111.13                
C21-C8-C5=110.28               C21-C8-O9=106.21               H33-C8-C5=109.27               H33-C8-O9=110.90               
H33-C8-C21=109.00              C10-O9-C8=118.66               O11-C10-O9=111.89              C19-C10-O9=107.55              
C19-C10-O11=111.54             H34-C10-O9=111.02              H34-C10-O11=105.48             H34-C10-C19=109.38             

 selected dihedral angles (degree)
 ---------------------------------
C3-O2-C1-H25= 63.46           C3-O2-C1-H26=301.60           C3-O2-C1-H27=182.69           O4-C3-O2-C1=289.51            
C23-C3-O2-C1=168.27           H28-C3-O2-C1= 49.50           C5-O4-C3-O2=182.52            C5-O4-C3-C23=301.42           
C5-O4-C3-H28= 61.34           C6-C5-O4-C3=181.68            C8-C5-O4-C3= 59.38            H29-C5-O4-C3=300.72           
O7-C6-C5-O4=104.08            O7-C6-C5-C8=225.22            O7-C6-C5-H29=344.65           H30-C6-C5-O4=340.36           
H30-C6-C5-C8=101.50           H30-C6-C5-H29=220.93          H31-C6-C5-O4=221.96           H31-C6-C5-C8=343.10           
H31-C6-C5-H29=102.53          H32-O7-C6-C5=292.28           H32-O7-C6-H30= 53.81          H32-O7-C6-H31=172.03          
O9-C8-C5-O4=187.65            O9-C8-C5-C6= 68.33            O9-C8-C5-H29=307.81           C21-C8-C5-O4=305.16           
C21-C8-C5-C6=185.84           C21-C8-C5-H29= 65.32          H33-C8-C5-O4= 64.96           H33-C8-C5-C6=305.64           
H33-C8-C5-H29=185.11          C10-O9-C8-C5=248.62           C10-O9-C8-C21=128.67          C10-O9-C8-H33= 10.38          
O11-C10-O9-C8= 97.56          C19-C10-O9-C8=220.38          H34-C10-O9-C8=340.01          
           -------------------------------------------------
          |                Final Singlepoint                |
           -------------------------------------------------

          ...................................................
          :                      SETUP                      :
          :.................................................:
          :  # basis functions                 120          :
          :  # atomic orbitals                 120          :
          :  # shells                           72          :
          :  # electrons                       142          :
          :  max. iterations                   250          :
          :  Hamiltonian                  GFN2-xTB          :
          :  restarted?                      false          :
          :  GBSA solvation                   true          :
          :  PC potential                    false          :
          :  electronic temp.          300.0000000     K    :
          :  accuracy                    1.0000000          :
          :  -> integral cutoff          0.2500000E+02      :
          :  -> integral neglect         0.1000000E-07      :
          :  -> SCF convergence          0.1000000E-05 Eh   :
          :  -> wf. convergence          0.1000000E-03 e    :
          :  Broyden damping             0.4000000          :
          :  net charge                          0          :
          :  unpaired electrons                  0          :
          ...................................................

 iter      E             dE          RMSdq      gap      omega  full diag
   1    -85.4650415 -0.854650E+02  0.722E-05    9.60       0.0  T
   2    -85.4650415 -0.245990E-10  0.465E-05    9.60     310.5  T
   3    -85.4650415 -0.821387E-11  0.178E-05    9.60     810.4  T

   *** convergence criteria satisfied after 3 iterations ***

         #    Occupation            Energy/Eh            Energy/eV
      -------------------------------------------------------------
         1        2.0000           -0.7440234             -20.2459
       ...           ...                  ...                  ...
        65        2.0000           -0.4320030             -11.7554
        66        2.0000           -0.4304348             -11.7127
        67        2.0000           -0.4270925             -11.6218
        68        2.0000           -0.4253110             -11.5733
        69        2.0000           -0.4241399             -11.5414
        70        2.0000           -0.4138705             -11.2620
        71        2.0000           -0.4094106             -11.1406 (HOMO)
        72                         -0.0566974              -1.5428 (LUMO)
        73                         -0.0321471              -0.8748
        74                         -0.0155132              -0.4221
        75                         -0.0047153              -0.1283
        76                          0.0007740               0.0211
       ...                                ...                  ...
       120                          0.3152889               8.5794
      -------------------------------------------------------------
                  HL-Gap            0.3527131 Eh            9.5978 eV
             Fermi-level           -0.2330540 Eh           -6.3417 eV

 SCC (total)                   0 d,  0 h,  0 min,  0.053 sec
 SCC setup                      ...        0 min,  0.001 sec (  2.319%)
 Dispersion                     ...        0 min,  0.000 sec (  0.884%)
 classical contributions        ...        0 min,  0.000 sec (  0.300%)
 integral evaluation            ...        0 min,  0.009 sec ( 16.700%)
 iterations                     ...        0 min,  0.011 sec ( 19.978%)
 molecular gradient             ...        0 min,  0.032 sec ( 58.950%)
 printout                       ...        0 min,  0.000 sec (  0.838%)

         :::::::::::::::::::::::::::::::::::::::::::::::::::::
         ::                     SUMMARY                     ::
         :::::::::::::::::::::::::::::::::::::::::::::::::::::
         :: total energy             -84.847652611289 Eh    ::
         :: total w/o Gsasa/hb       -84.827165056215 Eh    ::
         :: gradient norm              0.000157081822 Eh/a0 ::
         :: HOMO-LUMO gap              9.597813297347 eV    ::
         ::.................................................::
         :: SCC energy               -85.464252792796 Eh    ::
         :: -> isotropic ES            0.261906369145 Eh    ::
         :: -> anisotropic ES         -0.015766699268 Eh    ::
         :: -> anisotropic XC         -0.016774636937 Eh    ::
         :: -> dispersion             -0.047178143317 Eh    ::
         :: -> Gsolv                  -0.032467676693 Eh    ::
         ::    -> Gelec               -0.011980121619 Eh    ::
         ::    -> Gsasa               -0.000855536511 Eh    ::
         ::    -> Ghb                 -0.021489461690 Eh    ::
         ::    -> Gshift               0.001857443127 Eh    ::
         :: repulsion energy           0.616600181507 Eh    ::
         :: add. restraining           0.000000000000 Eh    ::
         :: total charge               0.000000000000 e     ::
         :::::::::::::::::::::::::::::::::::::::::::::::::::::

           -------------------------------------------------
          |                Property Printout                |
           -------------------------------------------------

    * Orbital Energies and Occupations

         #    Occupation            Energy/Eh            Energy/eV
      -------------------------------------------------------------
         1        2.0000           -0.7440234             -20.2459
       ...           ...                  ...                  ...
        59        2.0000           -0.4642678             -12.6334
        60        2.0000           -0.4597105             -12.5094
        61        2.0000           -0.4535214             -12.3409
        62        2.0000           -0.4503444             -12.2545
        63        2.0000           -0.4399629             -11.9720
        64        2.0000           -0.4371962             -11.8967
        65        2.0000           -0.4320030             -11.7554
        66        2.0000           -0.4304348             -11.7127
        67        2.0000           -0.4270925             -11.6218
        68        2.0000           -0.4253110             -11.5733
        69        2.0000           -0.4241399             -11.5414
        70        2.0000           -0.4138705             -11.2620
        71        2.0000           -0.4094106             -11.1406 (HOMO)
        72                         -0.0566974              -1.5428 (LUMO)
        73                         -0.0321471              -0.8748
        74                         -0.0155132              -0.4221
        75                         -0.0047153              -0.1283
        76                          0.0007740               0.0211
        77                          0.0028625               0.0779
        78                          0.0082278               0.2239
        79                          0.0233507               0.6354
        80                          0.0359407               0.9780
        81                          0.0423434               1.1522
        82                          0.0453735               1.2347
       ...                                ...                  ...
       120                          0.3152889               8.5794
      -------------------------------------------------------------
                  HL-Gap            0.3527131 Eh            9.5978 eV
             Fermi-level           -0.2330540 Eh           -6.3417 eV

     #   Z          covCN         q      C6AA      α(0)
     1   6 C        3.651     0.019    20.562     6.513
     2   8 O        1.702    -0.313    19.227     5.920
     3   6 C        3.649     0.249    17.032     5.929
     4   8 O        1.701    -0.352    19.931     6.028
     5   6 C        3.742     0.092    19.133     6.240
     6   6 C        3.675     0.064    19.721     6.363
     7   8 O        1.655    -0.470    22.261     6.369
     8   6 C        3.738     0.090    19.165     6.247
     9   8 O        1.703    -0.333    19.582     5.975
    10   6 C        3.644     0.242    17.159     5.955
    11   8 O        1.700    -0.347    19.843     6.014
    12   6 C        3.751     0.084    19.246     6.256
    13   6 C        3.674     0.068    19.671     6.356
    14   8 O        1.655    -0.472    22.292     6.374
    15   6 C        3.728     0.083    19.299     6.272
    16   8 O        1.656    -0.467    22.184     6.358
    17   6 C        3.730     0.094    19.125     6.243
    18   8 O        1.656    -0.483    22.525     6.407
    19   6 C        3.728     0.096    19.088     6.237
    20   8 O        1.656    -0.476    22.379     6.386
    21   6 C        3.729     0.099    19.043     6.230
    22   8 O        1.655    -0.472    22.300     6.375
    23   6 C        3.727     0.098    19.057     6.233
    24   8 O        1.657    -0.475    22.355     6.383
    25   1 H        0.924     0.062     2.181     2.309
    26   1 H        0.924     0.051     2.307     2.376
    27   1 H        0.925     0.089     1.892     2.151
    28   1 H        0.921     0.004     2.990     2.704
    29   1 H        0.923     0.042     2.422     2.434
    30   1 H        0.924     0.056     2.248     2.345
    31   1 H        0.924     0.073     2.056     2.242
    32   1 H        0.805     0.350     0.588     1.205
    33   1 H        0.924     0.038     2.471     2.458
    34   1 H        0.923     0.045     2.377     2.411
    35   1 H        0.923     0.049     2.338     2.391
    36   1 H        0.924     0.050     2.326     2.385
    37   1 H        0.924     0.072     2.064     2.246
    38   1 H        0.804     0.336     0.622     1.239
    39   1 H        0.924     0.058     2.218     2.329
    40   1 H        0.805     0.341     0.610     1.226
    41   1 H        0.923     0.035     2.514     2.479
    42   1 H        0.805     0.351     0.585     1.201
    43   1 H        0.923     0.038     2.477     2.461
    44   1 H        0.805     0.364     0.557     1.172
    45   1 H        0.923     0.034     2.524     2.484
    46   1 H        0.804     0.343     0.604     1.221
    47   1 H        0.923     0.041     2.430     2.438
    48   1 H        0.805     0.360     0.565     1.181

 Mol. C6AA /au·bohr⁶  :      19182.532094
 Mol. C8AA /au·bohr⁸  :     410559.718069
 Mol. α(0) /au        :        198.752161


Wiberg/Mayer (AO) data.
largest (>0.10) Wiberg bond orders for each atom

 ---------------------------------------------------------------------------
     #   Z sym  total        # sym  WBO       # sym  WBO       # sym  WBO
 ---------------------------------------------------------------------------
     1   6 C    3.923 --    25 H    0.980    26 H    0.978    27 H    0.978
                             2 O    0.962
     2   8 O    2.094 --     3 C    1.018     1 C    0.962
     3   6 C    3.936 --     2 O    1.018    23 C    0.958     4 O    0.949
                            28 H    0.942
     4   8 O    2.065 --     5 C    0.967     3 C    0.949
     5   6 C    3.941 --     6 C    0.972     4 O    0.967     8 C    0.962
                            29 H    0.955
     6   6 C    3.954 --     7 O    1.010     5 C    0.972    30 H    0.966
                            31 H    0.961
     7   8 O    1.956 --     6 C    1.010    32 H    0.862
     8   6 C    3.943 --    21 C    0.965     9 O    0.963     5 C    0.962
                            33 H    0.956
     9   8 O    2.099 --    10 C    0.977     8 C    0.963
    10   6 C    3.927 --    11 O    0.979     9 O    0.977    19 C    0.954
                            34 H    0.946
    11   8 O    2.084 --    10 C    0.979    12 C    0.948
    12   6 C    3.933 --    13 C    0.974    15 C    0.966    35 H    0.955
                            11 O    0.948
    13   6 C    3.958 --    14 O    1.018    12 C    0.974    37 H    0.967
                            36 H    0.965
    14   8 O    1.943 --    13 C    1.018    38 H    0.854
    15   6 C    3.959 --    16 O    1.006    12 C    0.966    17 C    0.961
                            39 H    0.958
    16   8 O    1.960 --    15 C    1.006    40 H    0.866
    17   6 C    3.963 --    18 O    0.998    19 C    0.971    15 C    0.961
                            41 H    0.954
    18   8 O    1.931 --    17 C    0.998    42 H    0.855
    19   6 C    3.963 --    20 O    1.002    17 C    0.971    43 H    0.957
                            10 C    0.954
    20   8 O    1.942 --    19 C    1.002    44 H    0.850
    21   6 C    3.965 --    22 O    1.004    23 C    0.968     8 C    0.965
                            45 H    0.955
    22   8 O    1.939 --    21 C    1.004    46 H    0.850
    23   6 C    3.965 --    24 O    1.007    21 C    0.968     3 C    0.958
                            47 H    0.956
    24   8 O    1.933 --    23 C    1.007    48 H    0.854
    25   1 H    0.996 --     1 C    0.980
    26   1 H    0.997 --     1 C    0.978
    27   1 H    0.992 --     1 C    0.978
    28   1 H    1.000 --     3 C    0.942
    29   1 H    0.998 --     5 C    0.955
    30   1 H    0.997 --     6 C    0.966
    31   1 H    0.994 --     6 C    0.961
    32   1 H    0.877 --     7 O    0.862
    33   1 H    0.999 --     8 C    0.956
    34   1 H    0.998 --    10 C    0.946
    35   1 H    0.998 --    12 C    0.955
    36   1 H    0.997 --    13 C    0.965
    37   1 H    0.995 --    13 C    0.967
    38   1 H    0.887 --    14 O    0.854
    39   1 H    0.997 --    15 C    0.958
    40   1 H    0.884 --    16 O    0.866
    41   1 H    0.999 --    17 C    0.954
    42   1 H    0.876 --    18 O    0.855
    43   1 H    0.998 --    19 C    0.957
    44   1 H    0.868 --    20 O    0.850
    45   1 H    0.999 --    21 C    0.955
    46   1 H    0.882 --    22 O    0.850
    47   1 H    0.998 --    23 C    0.956
    48   1 H    0.870 --    24 O    0.854
 ---------------------------------------------------------------------------

Topologies differ in total number of bonds
Writing topology from bond orders to xtbtopo.mol

molecular dipole:
                 x           y           z       tot (Debye)
 q only:       -0.360       0.622       0.035
   full:       -0.431       0.588      -0.056       1.859
molecular quadrupole (traceless):
                xx          xy          yy          xz          yz          zz
 q only:       -1.233      11.030       1.099      16.506      -1.101       0.135
  q+dip:       -7.452      15.329       6.871      21.312      -9.407       0.581
   full:       -6.492      15.302       6.165      21.478      -7.068       0.327

           -------------------------------------------------
          |                Geometry Summary                 |
           -------------------------------------------------

      molecular mass/u    :      356.3235988
   center of mass at/Å    :       -0.0729161      -0.0819656       0.0117540
  moments of inertia/u·Å² :        0.1376870E+04   0.3382240E+04   0.4424320E+04
rotational constants/cm⁻¹ :        0.1224344E-01   0.4984162E-02   0.3810220E-02

 * 48 selected distances

     #   Z          #   Z                                           value/Å
     1   6 C        2   8 O                                       1.4224936
     2   8 O        3   6 C                                       1.3787611
     3   6 C        4   8 O                                       1.4146945
     4   8 O        5   6 C                                       1.4130537
     6   6 C        7   8 O                                       1.4037820
     5   6 C        8   6 C                                       1.5388177
     8   6 C        9   8 O                                       1.4166639
     9   8 O       10   6 C                                       1.3987175
    10   6 C       11   8 O                                       1.3994588
    11   8 O       12   6 C                                       1.4281437
    12   6 C       13   6 C                                       1.5395841 (max)
    13   6 C       14   8 O                                       1.4014363
    12   6 C       15   6 C                                       1.5360404
    15   6 C       16   8 O                                       1.4025373
    15   6 C       17   6 C                                       1.5391184
    17   6 C       18   8 O                                       1.4074176
    10   6 C       19   6 C                                       1.5387461
    17   6 C       19   6 C                                       1.5307900
    19   6 C       20   8 O                                       1.4031541
     8   6 C       21   6 C                                       1.5344410
    21   6 C       22   8 O                                       1.4045705
     3   6 C       23   6 C                                       1.5351707
    21   6 C       23   6 C                                       1.5328255
    23   6 C       24   8 O                                       1.4008034
     1   6 C       25   1 H                                       1.0918878
     1   6 C       26   1 H                                       1.0945594
     1   6 C       27   1 H                                       1.0866120
     3   6 C       28   1 H                                       1.1122731
     5   6 C       29   1 H                                       1.1030096
     6   6 C       30   1 H                                       1.0955278
     6   6 C       31   1 H                                       1.0912115
     7   8 O       32   1 H                                       0.9658822 (min)
     8   6 C       33   1 H                                       1.0977573
    10   6 C       34   1 H                                       1.0987608
    12   6 C       35   1 H                                       1.1012239
    13   6 C       36   1 H                                       1.0970944
    13   6 C       37   1 H                                       1.0927258
    14   8 O       38   1 H                                       0.9724054
    15   6 C       39   1 H                                       1.0967344
    16   8 O       40   1 H                                       0.9670889
    17   6 C       41   1 H                                       1.1030966
    18   8 O       42   1 H                                       0.9681626
    19   6 C       43   1 H                                       1.1007106
    20   8 O       44   1 H                                       0.9684326
    21   6 C       45   1 H                                       1.1031556
    22   8 O       46   1 H                                       0.9730807
    23   6 C       47   1 H                                       1.0999415
    24   8 O       48   1 H                                       0.9682953

 * 4 distinct bonds (by element types)

   Z      Z             #   av. dist./Å        max./Å        min./Å
   1 H    6 C          17     1.0980166     1.1122731     1.0866120
   6 C    6 C           9     1.5361704     1.5395841     1.5307900
   1 H    8 O           7     0.9690497     0.9730807     0.9658822
   6 C    8 O          15     1.4063792     1.4281437     1.3787611


optimized geometry written to: xtbopt.xyz


           -------------------------------------------------
          | TOTAL ENERGY              -84.847652611289 Eh   |
          | GRADIENT NORM               0.000157081822 Eh/α |
          | HOMO-LUMO GAP               9.597813297347 eV   |
           -------------------------------------------------

Note: The following floating-point exceptions are signalling: IEEE_UNDERFLOW_FLAG IEEE_DENORMAL
normal termination of xtb
------------------------------------------------------------------------
 * finished run on 2026/09/22 at 12:57:23.509     
------------------------------------------------------------------------
 total:
 * wall-time:     0 d,  0 h,  0 min,  1.522 sec
 *  cpu-time:     0 d,  0 h,  0 min,  1.477 sec
 * ratio c/w:     0.970 speedup
 SCF:
 * wall-time:     0 d,  0 h,  0 min,  0.099 sec
 *  cpu-time:     0 d,  0 h,  0 min,  0.090 sec
 * ratio c/w:     0.910 speedup
 ANC optimizer:
 * wall-time:     0 d,  0 h,  0 min,  1.376 sec
 *  cpu-time:     0 d,  0 h,  0 min,  1.364 sec
 * ratio c/w:     0.992 speedup

