48
Coordinates from ORCA-job 3_opt_3c E -1337.099625776344
  C           5.65242067825424      1.13965332328282      0.36670447222555
  O           4.98518647158326     -0.03155947097598     -0.13277464593315
  C           3.63776330904422      0.17103167438935     -0.39229072137469
  O           2.94689758493841      0.24370716316940      0.86076485340825
  C           1.54869213251983      0.53716554094497      0.72136678052142
  C           1.01153226825269      0.72699599011888      2.12490623320690
  O           1.61642727386251      1.84238250188793      2.77988134728277
  C           0.89588692908848     -0.62838498304683     -0.02133908958045
  O          -0.47752045004930     -0.34759365835777     -0.32383029830892
  C          -1.46035904758088     -1.20589179832247      0.21111478270700
  O          -2.07810702557473     -0.67100582973754      1.36640743738457
  C          -2.76926677918880      0.57900627860071      1.15134126116645
  C          -3.35030074978129      0.97067608578654      2.49769074624120
  O          -2.33878696051753      1.20169081046348      3.47913878362972
  C          -3.85501224651261      0.41207492806756      0.08325598534851
  O          -4.52189793956246      1.64674508257686     -0.18543442238712
  C          -3.25468788401384     -0.17283008186408     -1.19379555741185
  O          -4.26144550171986     -0.51047299538701     -2.14908711815158
  C          -2.51098158518310     -1.45675404950897     -0.86956181898929
  O          -1.84750231321361     -2.00430854931565     -2.00897980918586
  C           1.59638246922387     -0.84823041261154     -1.35854164177258
  O           1.10770592324936     -2.01184450113141     -2.01838756679387
  C           3.09983307639637     -1.01579519975699     -1.18262558474833
  O           3.76172816247249     -1.05372623695831     -2.44379424970092
  H           5.27395282205364      1.41893742855210      1.35650725242449
  H           5.52174099804064      1.98071726776209     -0.32712049785424
  H           6.71148514879615      0.88591084243849      0.43912604272739
  H           3.47533051976461      1.11522853345697     -0.94978591766872
  H           1.41606690345013      1.46738982802258      0.14120958981524
  H           1.16615796138689     -0.20142398604220      2.69813322656644
  H          -0.06113886788257      0.92959287535350      2.07830688953671
  H           2.56857801720334      1.67744535663943      2.80083607704603
  H           0.97324779667015     -1.53958501101568      0.59166912695107
  H          -1.01120666848241     -2.15446314422756      0.53307972382308
  H          -2.04727392202724      1.34547929784528      0.82268835369144
  H          -4.04943499949749      0.18678561759464      2.82855898664749
  H          -3.90474107124817      1.90664365922091      2.38669814195857
  H          -1.88746458707451      0.36042999641838      3.62863590135749
  H          -4.63113116166608     -0.27109576278189      0.45572615971569
  H          -3.86429467233357      2.27998413562155     -0.50898960538302
  H          -2.54947159722958      0.55787819381151     -1.62582319667065
  H          -4.68960196119441      0.30999274146736     -2.42691155297966
  H          -3.23064634021936     -2.18725726578868     -0.46594911692921
  H          -2.49714594348437     -2.07627492646403     -2.72173876721665
  H           1.41878712922047      0.04713395121533     -1.98158122036101
  H           0.14912450039254     -1.89722841146438     -2.14927952073611
  H           3.30279592124081     -1.93320886336643     -0.60384816302395
  H           3.31169127813266     -1.72174796658324     -2.97879207222167
