48
Coordinates from ORCA-job 3_opt_3c E -1337.098496005837
  C           5.70594060471269     -0.78847428000202      0.17431271724194
  O           4.87502103726260      0.31817426969086      0.56692189092425
  C           3.54824072773718     -0.03128432603900      0.77582891367072
  O           2.92263467407045     -0.23433231723162     -0.49588074701743
  C           1.55369078276367     -0.64394502670002     -0.37679561345591
  C           1.08179210003439     -0.96429468604167     -1.78299140920068
  O           1.81151642056355     -2.05168402792958     -2.35003690331504
  C           0.75500796759785      0.49339568930130      0.26517431359483
  O          -0.59348040963078      0.05317048481844      0.44632620978028
  C          -1.58022994634277      1.06861132135775      0.38471924788467
  O          -2.21504331164191      1.09105822650304     -0.88125288483076
  C          -2.95754618654525     -0.10441571349100     -1.19868725115486
  C          -3.49961893306452      0.09985152426300     -2.60166793890045
  O          -4.41300476320254      1.19443150984950     -2.69188218395766
  C          -4.04055461461823     -0.33551455787648     -0.14741375648441
  O          -4.71212284769534     -1.54838065659959     -0.48684780425174
  C          -3.40520972238871     -0.42059456101194      1.23208606295526
  O          -4.47088190697106     -0.57878832262833      2.17556348823906
  C          -2.60353990014995      0.84438640562571      1.50018934252384
  O          -1.99503201078900      0.74695271316355      2.78466411086204
  C           1.37380647910839      0.81251487816781      1.62373376793449
  O           0.66028472575318      1.90882633196526      2.20886853460040
  C           2.85602438406305      1.12750636473839      1.48811674825103
  O           3.35755644079861      1.31203183957939      2.80952082005469
  H           5.41282093584779     -1.17045277587649     -0.80999294642773
  H           5.64366187073868     -1.59518547740366      0.91616365636317
  H           6.72805070989079     -0.40869048607856      0.12958810853460
  H           3.46832071810065     -0.96116297724320      1.37329355333081
  H           1.48386024765097     -1.54671783205206      0.25465734166004
  H           1.16892475504508     -0.05950073247419     -2.40548299049070
  H           0.03184289092005     -1.26697856855666     -1.75281961277631
  H           2.74231956158207     -1.79178234276069     -2.36603095807111
  H           0.78787009910143      1.37801069138938     -0.38985759182670
  H          -1.11885252047271      2.05805298111434      0.48458260178460
  H          -2.28302371411458     -0.97557112041207     -1.21395895132379
  H          -2.64864532139946      0.23903081461937     -3.28545711767192
  H          -4.04595731042536     -0.79627724237168     -2.90909829533925
  H          -3.93315708500382      1.99101002130117     -2.42903074515744
  H          -4.74478416905257      0.51301211860764     -0.16249279930124
  H          -5.30785129727647     -1.75441333750370      0.24630379556326
  H          -2.73531115709905     -1.29477525639948      1.26990717665313
  H          -4.07840812031847     -0.80112610369739      3.02945998014514
  H          -3.29365913379175      1.70464739211838      1.47266456812016
  H          -1.13293790119074      1.19957565570354      2.74663862613821
  H           1.26358170608105     -0.08048393149188      2.26376796031170
  H           1.12033637811251      2.14367150878110      3.02813510450897
  H           2.99033921089179      2.03730649537895      0.88052601394335
  H           4.24980685475657      1.67577542183508      2.74168084538051
