48
 energy: -84.738387994902 gnorm: 0.000701290987 xtb: 6.7.1 (edcfbbe)
C            5.74572633066263       -0.88572309558071        0.09885251070875
O            4.97172371509909        0.21741547389132        0.56585503815681
C            3.63845331213171       -0.07235988292170        0.77325371434585
O            3.03587667604770       -0.36331024537908       -0.46958566352257
C            1.66713657583099       -0.69612415769303       -0.38863387520138
C            1.20608470472919       -1.04496803055804       -1.81330548396645
O            1.68405129386980       -2.28428902908200       -2.25916938663204
C            0.86506258192039        0.47767862686585        0.19289352618956
O           -0.47671232904005        0.05733547626821        0.38941742532252
C           -1.46177091399490        1.05751143502355        0.27156755160555
O           -2.08776090010062        1.01370766569582       -0.97061535957223
C           -2.78463880854054       -0.21595141859885       -1.23955846463607
C           -3.19245295222213       -0.19546849458173       -2.70487821582689
O           -3.83942677066811        1.17114740276929       -2.98188687127438
C           -3.89253070255344       -0.39697127276750       -0.16317657975479
O           -4.65587289344171       -1.56448138557688       -0.36278915867070
C           -3.24822680918840       -0.40277625536194        1.23104799447585
O           -4.21198521770231       -0.49304363319754        2.25825230118370
C           -2.47154191219551        0.89917317813270        1.42084524934883
O           -1.76161988279152        0.93929199594355        2.63106415377605
C            1.46245931593013        0.89158297277955        1.55785066934017
O            0.85289476052166        2.05221598549311        2.06642426786707
C            2.97211463179079        1.15022035896856        1.43553540506368
O            3.55867667522817        1.46407758101096        2.66376641439602
H            5.35927416256780       -1.24596336630837       -0.85581984565246
H            5.73146785492453       -1.69545527631920        0.83447013708872
H            6.75352614755159       -0.49965728729792       -0.01830763003880
H            3.52795064986921       -0.96007866965389        1.43809792701146
H            1.53394814239997       -1.56479885694448        0.27712280173290
H            1.62492012542373       -0.30118443327566       -2.49319020782195
H            0.11275285209854       -0.99810713176869       -1.85557800630698
H            1.25334763095142       -3.00041474784668       -1.77117344977072
H            0.90745868550961        1.32576195158020       -0.49956311439616
H           -1.00485480703114        2.05314785336164        0.32823224962014
H           -2.08948272431007       -1.06158435357536       -1.11261174951763
H           -4.55154213174864        1.42606000563629       -2.35585727095609
H           -4.03515492288965       -0.90279174089376       -2.81530572669726
H           -3.09254169548125        1.79745129014748       -2.89710036688912
H           -4.61290354877121        0.42954161334453       -0.19908889085001
H           -4.06993653964009       -2.30231012700255       -0.58394989904021
H           -2.54010899779590       -1.24455391828862        1.30284903501709
H           -4.88284456419129       -1.13998740498657        1.99077376141054
H           -3.18290471314634        1.73866016592378        1.37177783802587
H           -2.37136114939019        0.70518669467727        3.34887258135630
H            1.30337901511107        0.04995891683823        2.25012528888454
H           -0.00942608205443        1.81445849498962        2.45298407808164
H            3.14611305660749        2.02180647400085        0.79818512123218
H            3.37931407987539        0.76659462332632        3.31262822052549
