48
 energy: -84.755666728040 gnorm: 0.000794917566 xtb: 6.7.1 (edcfbbe)
C            5.58183709881337       -1.17224039521979        0.53665510205887
O            4.88151220821514        0.05425341113923        0.73062339785283
C            3.50621501986670       -0.06397749362637        0.80143251868572
O            2.99079347806995       -0.43735046735585       -0.45917407089066
C            1.59436837541987       -0.65356985241430       -0.43658121911348
C            1.17373608451783       -1.02741710223698       -1.86354376300263
O            1.64365636315486       -2.28600244573288       -2.25508374655745
C            0.80225714170468        0.57121554579275        0.05256554363387
O           -0.49733083953468        0.09173997334121        0.34900197368435
C           -1.56103530983797        1.00430399973035        0.19207724466163
O           -2.22187345851534        0.80379707695520       -1.01289882812832
C           -2.84324052137914       -0.52215611589238       -1.14950292470020
C           -3.48482254527786       -0.71754144734252       -2.48664880360565
O           -4.43994041214363        0.49248240205108       -2.66728205450060
C           -3.86134774712602       -0.71723220092652       -0.02050797118709
O           -4.43175366154793       -2.00103125857425       -0.08670673682406
C           -3.16768203122254       -0.54814606062609        1.33016643778826
O           -4.06949431951395       -0.64853584630443        2.40970841155237
C           -2.52403938391913        0.83895591305477        1.38380852502946
O           -1.81465228047391        1.05142278371267        2.57225560043666
C            1.41732989619246        1.24777727808225        1.28768481874816
O            0.88393156709527        2.54673128663896        1.36879507113876
C            2.94754622946545        1.30701187895250        1.20049463764755
O            3.42854965277853        1.72183924068086        2.45014480440074
H            5.35169800220791       -1.59405219592811       -0.44175079911921
H            5.31702218266577       -1.88796630257345        1.31969168373253
H            6.63498962147355       -0.91457982891117        0.59880677556584
H            3.20930015852995       -0.82522632478479        1.55383491014205
H            1.36063594598335       -1.48769829443820        0.24421557580492
H            1.53180770967029       -0.24411483052655       -2.54299549339515
H            0.08468693473731       -1.07550326924818       -1.90730101665275
H            2.61151752871267       -2.27415819956420       -2.24118531289818
H            0.75565817423393        1.32148589542204       -0.74933433376860
H           -1.18037375651867        2.03243184407895        0.17752694624225
H           -2.05880592677072       -1.28306297215989       -1.03136873924403
H           -2.70181738913723       -0.57324996718678       -3.25405999321720
H           -3.94323343633685        1.33604107762158       -2.67581153015811
H           -4.89785900433851        0.34702216290521       -3.52013582010874
H           -4.65369599361021        0.04616470464467       -0.10111636220615
H           -4.54851193050004       -2.20816733609701       -1.03277967994106
H           -2.37612504749856       -1.30804115583351        1.42359993117076
H           -4.60425305336993       -1.44547975584733        2.27582179899858
H           -3.32141324446430        1.59356924925234        1.27785512645415
H           -2.38519726190235        0.76845040272946        3.30520927538976
H            1.13444187944131        0.66423695625333        2.17588190172629
H            1.24287131387295        2.97513616069520        2.16119816288874
H            3.23219429297347        2.01955966300736        0.41141902556882
H            4.39798070139776        1.72819622508416        2.42901500529340
