48
 energy: -84.856077961361 gnorm: 0.000421248466 xtb: 6.7.1 (edcfbbe)
C            5.56068033187025       -0.77876512659486        0.10145100963095
O            4.77015645890074        0.30257236740017        0.59027592374654
C            3.43866072343131       -0.00337946404954        0.79715527941652
O            2.81751955314047       -0.26555372702686       -0.44580705499614
C            1.44755298232687       -0.59256243979925       -0.33389396030595
C            0.95665072029772       -0.94709222220840       -1.74393510862792
O           -0.08293556361398       -1.89195384694260       -1.66098169791114
C            0.66483686639445        0.56623230933158        0.30557283181042
O           -0.67220319355371        0.15041538033122        0.49232305011511
C           -1.65262498534048        1.15699722908128        0.43166737025048
O           -2.28785471419191        1.18012732020039       -0.81244711625101
C           -2.94512956551534       -0.04600144674734       -1.14373880252633
C           -3.61202859607559        0.17804717816626       -2.50678654121165
O           -4.49290416370062        1.27138856523920       -2.49581742755127
C           -3.98851635493932       -0.44936583346858       -0.08251757075684
O           -4.54770672839866       -1.69611272147042       -0.39676344486315
C           -3.35599877621431       -0.43392005941202        1.31630575393025
O           -4.35805732092127       -0.67474066767389        2.27178247798542
C           -2.66177889169957        0.91244923584703        1.56133337169479
O           -2.03928643387893        0.87491468501505        2.82109420394336
C            1.29301720569886        0.93145165011175        1.66008292808234
O            0.62407937749213        2.04786405268122        2.20029406938911
C            2.78636280930478        1.20887233999429        1.47856190017745
O            3.33183774620547        1.45578962566917        2.74586644202176
H            5.20595868983092       -1.09764095003478       -0.87897861924026
H            5.52397617007764       -1.61896895546062        0.80010041811461
H            6.57133875878472       -0.38802829467317        0.03124933156202
H            3.33212939258058       -0.89675214606401        1.44910975738274
H            1.31732949883935       -1.48027724178209        0.30475804624241
H            0.61020265227544       -0.03916571981140       -2.25369984120021
H            1.82201678563682       -1.34714650789348       -2.28058229747252
H           -0.11799521456441       -2.39955770401749       -2.48457632701943
H            0.70661320327055        1.44073428195657       -0.35693294069269
H           -1.19937825493200        2.15029776853936        0.54254211643976
H           -2.19265598444768       -0.84300770871788       -1.22076550546727
H           -2.83338294696408        0.32473335286408       -3.26498319138798
H           -4.20998887883994       -0.69999237016931       -2.75534458473219
H           -3.99706174166424        2.05053833007254       -2.20502353303238
H           -4.82529094375705        0.25753002473973       -0.10279444864423
H           -3.89418559222578       -2.39340102469042       -0.23857969549489
H           -2.58103175818001       -1.21681540782500        1.36773421446348
H           -3.97550335982623       -0.53533415858869        3.15135995298605
H           -3.41566780612442        1.71527116126802        1.53472753827474
H           -1.24368896338038        1.43401295783770        2.80460870620394
H            1.17511533409733        0.07271617369597        2.33920219928936
H            1.16994011348729        2.39145482928684        2.92718063286315
H            2.92233509712023        2.07554139212820        0.81455054800634
H            4.28675127036822        1.59719951164105        2.66181977696408
