48
 energy: -84.849946140688 gnorm: 0.000578254553 xtb: 6.7.1 (edcfbbe)
C            5.61817137601582       -0.92610730276301        0.05129834992699
O            4.86989082689795        0.18104830406644        0.54982675878299
C            3.53121878831644       -0.08280635732739        0.75940906295808
O            2.91660940834173       -0.37244677831462       -0.47907411965461
C            1.54215564068798       -0.68356082373990       -0.39268610023236
C            1.06668417520704       -1.01608934280622       -1.81583855460426
O            1.53456971300456       -2.25124996479666       -2.27984422338667
C            0.75370667677494        0.49719149441164        0.19856317932065
O           -0.58802811590008        0.08838688885986        0.40530557986584
C           -1.56007199908796        1.10296759520082        0.29996049336569
O           -2.19182643284994        1.06792386148531       -0.94886483254694
C           -2.90772680426652       -0.14366971051233       -1.16912926516188
C           -3.41842430770008       -0.15135404953150       -2.61227044793552
O           -3.23288221936751       -1.44829589107334       -3.12887044036361
C           -4.03495520842914       -0.30091958463206       -0.13117134212282
O           -4.82946775238046       -1.42166514994577       -0.38878586995424
C           -3.40618385119431       -0.31355792539908        1.27201539931310
O           -4.42817342059340       -0.38743913178430        2.23216169259448
C           -2.56531738625363        0.95794344589805        1.45472142112265
O           -1.91811464760612        0.88546982292031        2.69871356352456
C            1.37416917404358        0.90826295901547        1.54288486234681
O            0.72276070569187        2.05728485192805        2.03643050361503
C            2.88152488518260        1.15963497609648        1.38713646460912
O            3.44441884427192        1.53810878845866        2.61152007109094
H            5.22414245849936       -1.24948718647916       -0.91306746895382
H            5.58466245562719       -1.75667517855331        0.76225704933625
H            6.63466687687184       -0.56016892071699       -0.05519973067667
H            3.40157754509560       -0.95953496111155        1.43536770362243
H            1.39763134541110       -1.55439714928372        0.26695038844870
H            1.47946206593649       -0.26564157472078       -2.49288357230418
H           -0.02714890497343       -0.96576214138481       -1.84191285755463
H            1.09825787912668       -2.97147865602895       -1.80248303908677
H            0.79253368780346        1.34313266502843       -0.49788905651533
H           -1.08703315237713        2.09097532239869        0.35325973345384
H           -2.21531618000629       -0.99213744839489       -1.06154608540364
H           -4.47566474735781        0.13317723222822       -2.62927944170580
H           -2.83254626681953        0.58672640319045       -3.17517703843681
H           -3.64371387899581       -1.50980755400156       -4.00262103126107
H           -4.71440665479236        0.55631904066825       -0.19709883669837
H           -4.29936249146313       -2.22830064581335       -0.31104139080555
H           -2.73250826305415       -1.18089503202510        1.36424608039018
H           -4.03075373355418       -0.26775497523988        3.10811470068677
H           -3.24139371507069        1.82786017655173        1.42250025040056
H           -1.14443543826654        1.47500684333523        2.69346649608387
H            1.21536511061386        0.07677581194920        2.25009831340151
H            1.34093421310423        2.51396300573870        2.63356003122351
H            3.04807200897964        2.00157362445368        0.70671365673231
H            3.56438971870474        0.76828233530787        3.18705699283184
