48
 energy: -84.850318827551 gnorm: 0.000874704684 xtb: 6.7.1 (edcfbbe)
C            5.52735081925391       -1.21449189171024        0.21951962771696
O            4.89002438997429       -0.03045300820048        0.69494676116919
C            3.51781668397378       -0.13209795883687        0.81215907939566
O            2.95156121383623       -0.29198875028612       -0.47195460355783
C            1.56194982233552       -0.52462408791699       -0.44023487329210
C            1.10476393679926       -0.75880240523975       -1.88065842636349
O            1.33364136293243       -2.10577185142535       -2.21294565341030
C            0.80222043603608        0.64596865363299        0.20638632880796
O           -0.51631579166893        0.17892891493121        0.44853272686506
C           -1.54003818924204        1.14079761266818        0.41536117227431
O           -2.21033392530883        1.11301491139877       -0.81551678799582
C           -2.85744719195358       -0.12969861812389       -1.08927359144120
C           -3.44534209436597       -0.04965513794456       -2.50490884684768
O           -4.77863389439577        0.40750424333649       -2.45339210948831
C           -3.92752204265445       -0.40518834311106       -0.02099389313561
O           -4.58074444254069       -1.63380547712045       -0.22165653282647
C           -3.24247366466202       -0.45149801743086        1.34690673229660
O           -4.17127058665452       -0.62159797431093        2.39029957651634
C           -2.51079096756557        0.87291073612726        1.58112417912041
O           -1.78431536274263        0.87003840759062        2.77721677335902
C            1.44368952615638        1.12004119944095        1.51906752403332
O            0.94323173029957        2.40674626973139        1.79265313771752
C            2.98299633365546        1.15830076068312        1.44932392293027
O            3.52858251239579        1.42026528548794        2.71262987153472
H            5.15053452916665       -1.47914207605261       -0.76935824345730
H            5.35452823292455       -2.04227152435015        0.91344766264434
H            6.58468751252712       -0.97273946153570        0.17385665269571
H            3.23599403484242       -1.01117420927946        1.43484313880515
H            1.34806462216540       -1.43231201198577        0.14629295690131
H            1.68134335785895       -0.08551578237944       -2.52445648416936
H            0.03736330396709       -0.51621407067033       -1.95034255913677
H            1.15973672899665       -2.23835566393817       -3.15623459521664
H            0.78306823734662        1.49631119975293       -0.48801896910097
H           -1.12611560616435        2.14937331301747        0.51423215622766
H           -2.11069692158845       -0.93492090820011       -1.04713119746737
H           -2.81104308884650        0.63525645105801       -3.07543031661182
H           -3.40880021006248       -1.04778625819003       -2.95943291164123
H           -5.05684252994865        0.68643084125304       -3.33665444334183
H           -4.64631913379566        0.42542646808090       -0.02576749546571
H           -5.18019204509207       -1.54286941132581       -0.97743246201145
H           -2.50658570843161       -1.26990308789903        1.35141275476397
H           -4.73735420343425       -1.37684753958999        2.16848632701590
H           -3.25827926352470        1.68232014351548        1.58628446605453
H           -2.37880431889337        0.56867521129037        3.48356817471235
H            1.12930715318680        0.42056616380527        2.31036211456582
H            1.39882953117909        2.75549598021344        2.57532605345379
H            3.29409314720064        1.99296092286065        0.81221663749450
H            3.43459299815245        0.64697187888041        3.28895738971189
