48
 energy: -84.852623031012 gnorm: 0.000715027692 xtb: 6.7.1 (edcfbbe)
C            5.62471030006005       -0.99708968239820        0.27121390613935
O            4.89273833596518        0.14135908675657        0.72063598452024
C            3.53280934257760       -0.07020207996698        0.85846411551576
O            2.96201757766974       -0.30096161671659       -0.41045690376387
C            1.58126361483308       -0.58347758447393       -0.35434381574375
C            1.12725055267666       -0.89126989431746       -1.78155374866143
O            1.45773842457079       -2.22516528198857       -2.07802243881968
C            0.79487389004324        0.59209086721120        0.25294751785637
O           -0.54407213394626        0.15602003707216        0.43270082125488
C           -1.54045718358673        1.15008144478892        0.34445180259387
O           -2.15335855003636        1.14763269556565       -0.91436072548849
C           -2.83825170080701       -0.05801631460407       -1.24846378416211
C           -3.39555411568050        0.14971322069373       -2.66428607931613
O           -4.37250977244003        1.15616190052642       -2.71162439948636
C           -3.94882437722980       -0.36993564966448       -0.22684972052854
O           -4.53969809831872       -1.61883117708149       -0.49191821249173
C           -3.32515765272128       -0.42173520539089        1.17834536375856
O           -4.26290762986189       -0.71842761318760        2.17731340325426
C           -2.58820068795041        0.90102269407200        1.45494252974492
O           -2.01753780968001        0.93470439575798        2.73031040234191
C            1.40365119753080        1.05053903318197        1.58577530641720
O            0.81373371058697        2.27699820862782        1.93320154902510
C            2.92714797214602        1.19677988854811        1.47758689221116
O            3.41677768663345        1.43409486633850        2.77012052159576
H            5.25844641803390       -1.32506168672024       -0.70223950703203
H            5.53348888675809       -1.81292571639219        0.99370391167320
H            6.65638684738881       -0.66627258571340        0.19970417905450
H            3.33044044958860       -0.94425544187046        1.51409833272928
H            1.40693042882728       -1.47525021707220        0.26790990993624
H            1.64268278338617       -0.19503901378126       -2.45275923405785
H            0.04405634846417       -0.73424668332205       -1.84319064846302
H            1.25971179982330       -2.40747214176364       -3.00824816799739
H            0.82232214141724        1.43982698764510       -0.44431925258398
H           -1.10416352913901        2.14628971887741        0.46744563177702
H           -2.13476194477690       -0.90151111630214       -1.25033874811155
H           -2.55965907977586        0.38628466580867       -3.33220791326356
H           -3.87479693944059       -0.76858905921745       -3.00416399320410
H           -3.95798529883123        1.99569579884721       -2.46679930520439
H           -4.69605064085060        0.43479543133081       -0.25815822929943
H           -5.23480372401913       -1.51829620697332       -1.15674149866088
H           -2.60871030861312       -1.25044434525757        1.20581711169817
H           -4.93126280173930       -0.01903003552411        2.22400213470496
H           -3.30214648378098        1.73211487798137        1.43143243326885
H           -1.43525787884134        0.16897044854917        2.83319248228606
H            1.18869209147081        0.29061834475906        2.35233519982742
H            1.22684450672001        2.59680408618326        2.75058803209978
H            3.16114787605869        2.03553922983512        0.80539924784843
H            4.38189722774468        1.51642958465973        2.73529245570213
