48
 energy: -84.714700147992 gnorm: 0.000859150292 xtb: 6.7.1 (edcfbbe)
C            5.62448528621406       -0.89138202987702        0.05856500105544
O            4.90065538769150        0.14096274752207        0.72535705364374
C            3.54609384254704       -0.11183455255582        0.86557845463425
O            2.94893685172823       -0.21204665922056       -0.39827160776892
C            1.56282965019574       -0.54754215426622       -0.35317072151328
C            1.12353575807342       -0.86550474055562       -1.77731391717836
O           -0.17901298364176       -1.61547585287622       -1.66984460549789
C            0.82775383361206        0.60773689839399        0.39066188131737
O           -0.54192576286871        0.27377093356864        0.48733843439353
C           -1.45526107891534        1.33794933786448        0.50500522404024
O           -2.04025068520185        1.53999029973425       -0.75270440506790
C           -2.65239616061867        0.35615828917548       -1.25258850228767
C           -3.26354423887621        0.70032316429545       -2.61442951363586
O           -3.92211209880979       -0.44525869085910       -3.18626563602440
C           -3.76592763495932       -0.12766769252365       -0.30552205828944
O           -4.30438346528129       -1.33886050584327       -0.80757725106022
C           -3.27103913362251       -0.27120970043535        1.14112015419954
O           -4.35174578767579       -0.46003098545951        2.01943819316839
C           -2.52451955958137        1.00445518438713        1.56382667762577
O           -1.93856827758351        0.80350875318206        2.82379623302954
C            1.41923618402727        0.80683323737079        1.78754136815772
O            0.78939967435224        1.88890620772403        2.44596812061890
C            2.92882848739300        1.03747789579418        1.67642863925496
O            3.50177763269350        1.20888566440811        2.94489157007465
H            5.21956606089819       -1.05051420106690       -0.94173679870819
H            5.56567399963211       -1.82146966586903        0.63191165011121
H            6.64875180154579       -0.53487944071258        0.01080639630894
H            3.38449124467358       -1.07410676446144        1.41267873191165
H            1.43869299280238       -1.45625374662556        0.26826798436127
H            0.80742371341267        0.11676902227753       -2.23691226428861
H            0.05791917860117       -2.52732223723827       -1.87857652795873
H           -4.01853430866398        1.47715716965089       -2.48661622686993
H            0.95670781503648        1.52588710133899       -0.20000854736674
H           -0.96144567891677        2.28461110113003        0.75455804400395
H           -1.87954185628436       -0.42405820305609       -1.34933847069081
H           -4.32925735617947       -0.96270368561159       -2.38977306484431
H           -2.48938097435558        1.06494079872986       -3.28551843658411
H           -3.27809818904306       -1.02436313232612       -3.65022173601471
H           -4.59179640988276        0.59308693754843       -0.29945364599437
H           -3.67909965547926       -2.06325356535141       -0.64832853677572
H           -2.54943973975029       -1.09995041785458        1.21510247109599
H           -4.85853013470304       -1.24004957159827        1.74306375978979
H           -3.24492971981663        1.83576355657476        1.61563013943178
H           -1.09781920903539        1.28970764841244        2.86845565800393
H            1.23363022392016       -0.11644892563915        2.36325263796295
H            1.39433777741619        2.20499354465048        3.13969219120473
H            3.11853434201897        1.96721037780081        1.12872344388152
H            3.63520337228634        0.35198420491109        3.37659566567886
