48
 energy: -84.749677587429 gnorm: 0.000350888273 xtb: 6.7.1 (edcfbbe)
C            5.53429909227374       -0.66358969754078       -0.30621873379361
O            4.69664786643664        0.36632877902528        0.20779742394421
C            3.45421387377488       -0.07548392833843        0.64311744720194
O            2.69809290819458       -0.45221099543447       -0.46936084632049
C            1.32029596288935       -0.86205396482466       -0.14372409906080
C            0.60586745662248       -1.54590067429383       -1.26256730344422
O            0.59283234335344       -0.65603071504765       -2.52007528658407
C            0.64225684292260        0.40655677882817        0.40266193451389
O           -0.72952352116547        0.14008750966976        0.58974766221899
C           -1.59704573676605        1.22757560147325        0.43849028680022
O           -2.18291680442402        1.20646696573078       -0.83527591539142
C           -2.76451695166972       -0.06312011208626       -1.12719331046646
C           -3.12225321790762       -0.07223982335425       -2.60625803690437
O           -1.91612256517556        0.00170671759879       -3.34014910871473
C           -3.96130275944140       -0.28238806164470       -0.19279144604573
O           -4.55889445035473       -1.51964081726671       -0.47648005030922
C           -3.45571438477158       -0.21577280077504        1.25995555439484
O           -4.50280087983751       -0.39260171097359        2.18469736533360
C           -2.69882677966595        1.09772854196887        1.50627233146754
O           -2.09263132593829        1.14143460581352        2.77318549737001
C            1.33166532296482        0.78989543707911        1.71862076219902
O            0.78777127784610        1.94420751174030        2.32136316737183
C            2.81412443456894        1.07226662058428        1.44234123232961
O            3.53562900851664        1.20397235306885        2.63702008259837
H            5.05756964345427       -1.15580867515542       -1.15648622973944
H            5.74786558018574       -1.40089934202754        0.47342266296851
H            6.44760125275281       -0.16475921336740       -0.61640809508227
H            3.56752286767510       -0.94575304007048        1.32733233203016
H            1.37569943149844       -1.60283944723368        0.66765612987005
H            1.25730173082511       -2.37802970403743       -1.58720112607802
H            1.24390115813871        0.06538664577544       -2.45823222646613
H           -0.33419821983260       -0.30864336376038       -2.66748495911943
H            0.76909583291334        1.23021022974256       -0.31380255098189
H           -1.08398273623731        2.19083791975862        0.52503261388162
H           -2.02109118712378       -0.85328151504830       -0.94491422088946
H           -3.75341089225111        0.79430984831349       -2.83336605359372
H           -3.66407972479333       -0.99907483328133       -2.81055444842227
H           -2.08889169806481       -0.22723988948117       -4.26434571513142
H           -4.69062338826584        0.53169614620460       -0.35648159531685
H           -4.99548499177823       -1.84886167512592        0.32508396041033
H           -2.76217049196523       -1.04693921164455        1.42803062565263
H           -5.16733710864434        0.30403380283485        2.06844239258790
H           -3.38883796527840        1.94970582152048        1.38917245419007
H           -2.66871528018657        0.68835549780912        3.41026884824442
H            1.25911814705738       -0.06322817239717        2.40964250263583
H           -0.10008685085250        1.73590923888969        2.66145561911093
H            2.89743954361222        1.98817304810044        0.83804858316834
H            3.11480534419912        1.90294979212839        3.16334794791991
