48
 energy: -84.853919212797 gnorm: 0.000463615290 xtb: 6.7.1 (edcfbbe)
C            5.63407943642360       -0.86617521649391        0.26565639980147
O            4.85804156576895        0.22861284463261        0.74660326993184
C            3.50356811583611       -0.02893242383928        0.85982746871458
O            2.96421007045605       -0.26977234667513       -0.41963421424622
C            1.57408546235372       -0.51541404173869       -0.43691983519815
C            1.17764976207438       -0.66320068355333       -1.90995041413973
O            1.40486652973368        0.56309661644470       -2.56043368595402
C            0.76837891043874        0.61611940745864        0.22280320773460
O           -0.56498129079731        0.15928348928556        0.38449848989129
C           -1.56301719564531        1.15147831281735        0.33037852161728
O           -2.18233931350816        1.17906363113349       -0.92345474394247
C           -2.84831400207089       -0.04115926182810       -1.23913597977575
C           -3.38246541574972        0.06409237650972       -2.66503124998489
O           -2.36721265421697       -0.32938214908494       -3.56065147938424
C           -3.97236537348614       -0.32544868669780       -0.22040287030522
O           -4.68416362363590       -1.48552683272114       -0.54961994987893
C           -3.35958887975593       -0.38329900653438        1.18592004419206
O           -4.38744304810657       -0.56586986440448        2.12583809322986
C           -2.57988019086513        0.90999405307202        1.45610727937630
O           -1.95393510193294        0.80143304384869        2.70884528703813
C            1.34914350641620        0.95012950929768        1.60517613849536
O            0.66861805576109        2.05866226334023        2.14775392998626
C            2.85010251287524        1.20811865684204        1.49125059432078
O            3.34093244219229        1.46875771355909        2.77851994193908
H            5.31770756835563       -1.14357868946505       -0.74014131810222
H            5.53308922966689       -1.72370651859337        0.93675000674472
H            6.65967777041894       -0.50935252748473        0.25697516560078
H            3.32270831844822       -0.91719992282307        1.50480061064446
H            1.34966444282255       -1.44883306913502        0.10269777643200
H            1.79430910253227       -1.45612138371928       -2.34865197053628
H            0.11899393706765       -0.94182261626209       -1.96347170718600
H            1.18125281543987        0.46764147688239       -3.49690775745325
H            0.80196158466471        1.50111073577608       -0.42168885250102
H           -1.11780135769789        2.14696740059030        0.44987790310022
H           -2.11909997233123       -0.86340303675777       -1.20152372989003
H           -3.68171028685530        1.10347052725145       -2.83769467239180
H           -4.25442407497001       -0.59543688564288       -2.75186450107565
H           -2.69243331326595       -0.22714473812808       -4.46657197796770
H           -4.70557541215240        0.48795469645255       -0.25245850089312
H           -4.16201822899977       -2.26943339490531       -0.32377673100946
H           -2.64316321711908       -1.22032497227694        1.23607419326953
H           -4.01170627435856       -0.45154092893714        3.01200884331644
H           -3.28971308152471        1.75331610331122        1.45521472242463
H           -1.16664332045176        1.37317146899797        2.72306280840988
H            1.19487415620865        0.07716830603659        2.26006020249563
H            1.21072611867016        2.40350641577348        2.87716328130710
H            3.03082730002547        2.05838951497078        0.81726959709453
H            4.30344191840542        1.57144063464979        2.73701039816537
