48
 energy: -84.850275413833 gnorm: 0.000721835579 xtb: 6.7.1 (edcfbbe)
C            5.61420292254856       -1.04873710527841        0.24077337291310
O            4.88246155848206        0.12172756226793        0.59539332899397
C            3.53262975656280       -0.08646938311726        0.79234361304329
O            2.92850102193785       -0.30376563280157       -0.46636684336851
C            1.53770925531730       -0.54290314487306       -0.41051625723691
C            1.08849254655806       -0.78568393297338       -1.85980165877599
O            1.32804391550418        0.32727477591838       -2.67696317082425
C            0.78016253710743        0.64600752729187        0.20687839771827
O           -0.56194989876860        0.21298280312374        0.40728497044517
C           -1.56622638117253        1.19997916878863        0.33251021161804
O           -2.20158324912495        1.19575237250266       -0.91446993257359
C           -2.87523239089433       -0.00920243491095       -1.24903521237444
C           -3.53198234506080        0.20753253719973       -2.61308283156357
O           -4.56666553108503        1.15396314720625       -2.48807762319465
C           -3.90966848039371       -0.40501311251156       -0.18907008711484
O           -4.40444045119685       -1.67870036140456       -0.52232413541347
C           -3.25083830825603       -0.41969009578701        1.20023639142785
O           -4.17632397705638       -0.78686488708302        2.19383803415681
C           -2.59657498026327        0.94305290044954        1.45669236115808
O           -2.04007268834616        1.05036433518674        2.73433155194348
C            1.41390273033306        1.07275025666979        1.54186373349906
O            0.88586407273107        2.28136321171401        2.02964088319368
C            2.94786319640229        1.16132304610624        1.46327125085460
O            3.50032238883931        1.25477561801895        2.74805657568091
H            5.24164364137062       -1.46523395579145       -0.69657250046448
H            5.53977883027760       -1.79647545439012        1.03520908687483
H            6.64322327400469       -0.72121853578439        0.12780534250854
H            3.35283807322469       -0.96582903107342        1.44435314345404
H            1.32867279285485       -1.43597008860638        0.19681655308506
H            1.60864010734002       -1.67094764441846       -2.24281847572950
H            0.01209192292810       -0.96067571673865       -1.87499354574128
H            2.28214122210419        0.49704230325890       -2.68484974948827
H            0.79984992469738        1.47980021863341       -0.50763678145904
H           -1.14578819056712        2.20366381574056        0.44256039877992
H           -2.15005470262952       -0.83113396740916       -1.33309885645020
H           -2.75783539600314        0.56158622964018       -3.30357163285244
H           -3.92628936335877       -0.75889599057821       -2.94952577635228
H           -4.92060975583117        1.34858873046511       -3.36738079701581
H           -4.72282720375875        0.33761345828411       -0.20195247984778
H           -4.87818178579113       -2.02657252121808        0.25045761298007
H           -2.47944713789148       -1.19941289321476        1.21313033576777
H           -4.72862382649571       -0.02661711105991        2.42650701313555
H           -3.35398307009525        1.73289018878727        1.39417237090090
H           -1.35585236978280        0.37488996016665        2.84104608524631
H            1.15600462871434        0.32016628592914        2.29590719736946
H            1.13733304212150        3.01153540651492        1.44385653261286
H            3.24491516133011        2.02605573193870        0.84866360079458
H            3.03992296263902        1.95674943490972        3.23731536573311
