48
 energy: -84.719162659037 gnorm: 0.000778968960 xtb: 6.7.1 (edcfbbe)
C            5.74815709725611       -0.88960688867892        0.11217531801277
O            4.96309861694785        0.15239714691359        0.68863648023806
C            3.62314978824893       -0.15188155117325        0.83993590750278
O            3.03519229174855       -0.30230696859459       -0.43609267282035
C            1.65367331461160       -0.58525015034170       -0.38046489724355
C            1.19124066421594       -0.84999313355494       -1.82629355808971
O            0.02025311536819       -1.61110428771410       -1.90905242001232
C            0.90753584240521        0.58363000282568        0.27664333835960
O           -0.46639875624761        0.25050737279727        0.36052387870428
C           -1.37193637006181        1.32005237610073        0.29758311453313
O           -1.93413245207031        1.45767960701837       -0.97215797229892
C           -2.66030709770259        0.33224083804736       -1.45358341519204
C           -3.81468502022199        0.59197777924228       -2.23380623976166
O           -5.63543356792337       -1.60509875654236       -2.85282894724857
C           -3.78484218207429       -0.26271614713732       -0.44416531784590
O           -4.05936184876719       -1.59027430433215       -0.69275084004389
C           -3.16715595034052       -0.23878567012761        0.98103845961972
O           -4.17185137531066       -0.46528467220053        1.92848269154390
C           -2.48248732826491        1.08050662017393        1.32792865915655
O           -1.89869223062604        1.04695934061256        2.60029510389456
C            1.46350355987346        0.83430514338891        1.69637410777714
O            0.91627187219169        2.00037631460562        2.26329761011473
C            2.98628391370553        0.99311412429256        1.64972136778610
O            3.46760201314699        0.97045252170809        2.96614005959635
H            5.40589195301836       -1.10924910084332       -0.89956694464864
H            5.69002231294326       -1.79077750075965        0.72865132039811
H            6.76428190946745       -0.50718155129757        0.09471244149343
H            3.49366612343594       -1.09994429946866        1.40663098184998
H            1.48000970112314       -1.48508410994254        0.23183668887417
H            0.97506445701783        0.10073727094037       -2.31807980182064
H            2.02373903495859       -1.33153205595480       -2.35142431644171
H            0.19990507262310       -2.52433602675160       -1.64137018500480
H            1.05024755880116        1.48796877891797       -0.32862987360643
H           -0.87263207544883        2.27534646348905        0.49930983730923
H           -2.00187639422914       -0.50030754024601       -1.69896524707980
H           -4.09553866383615        1.65237798111193       -2.13029182208923
H           -5.22166218833992       -0.76331866186714       -3.11597477078450
H           -5.40121355715629       -2.25467163513650       -3.52412191554158
H           -4.69542025713389        0.36110781743213       -0.40392728067073
H           -4.68525429529954       -1.69277069863716       -1.46527289565870
H           -2.41108037915540       -1.03542704613817        1.00290508698578
H           -4.57219232903028       -1.33353413085788        1.76574347172271
H           -3.21172939086898        1.90261540941259        1.25661380485898
H           -2.55832038549014        0.71374720151948        3.23083464816308
H            1.22894683449691       -0.03754528893733        2.32117134064605
H            0.04479707711795        1.79296211488589        2.64060256409093
H            3.22585638430020        1.94382173959263        1.15484046867981
H            4.41360259804059        1.18097815986000        2.96231972996242
