48
 energy: -84.731536137379 gnorm: 0.000371506013 xtb: 6.7.1 (edcfbbe)
C            5.73078355524147       -0.95341633398094        0.29988306743455
O            4.97263376580857        0.13172776463443        0.82919584872959
C            3.61085978585439       -0.10733360855550        0.89251612930304
O            3.11140242025712       -0.19110227463454       -0.41527334925462
C            1.73458689330616       -0.50957459856603       -0.51402467766484
C            1.53053871561490       -0.66764072771033       -2.01842050897179
O            0.01177576134803       -0.80765188599785       -2.27316750515045
C            0.88965784785046        0.60066587571690        0.17585583295896
O           -0.43500797864095        0.10506625482372        0.36048056934496
C           -1.46276626707185        1.06064900727044        0.32780174155671
O           -2.08170554431637        1.03059048274598       -0.93092604125418
C           -2.84956395291347       -0.15883841238097       -1.16290926520713
C           -3.37745608266736       -0.08487408930031       -2.60570877112426
O           -2.49563586537524       -0.67976949399508       -3.52653303730363
C           -3.97848266148805       -0.26043559247130       -0.12910513098065
O           -4.81490885616908       -1.36361709278020       -0.35927779823682
C           -3.37527905864317       -0.31661212892485        1.28478458164588
O           -4.38890024472911       -0.26732287684245        2.25759577333592
C           -2.44091392189746        0.87444337413306        1.50673561314376
O           -1.74112640253487        0.67563496707852        2.70437605531403
C            1.43785730223417        0.94579654392491        1.57527070590841
O            0.82709538386454        2.10795379403052        2.10664778795568
C            2.96308942303169        1.06460735077840        1.63974330968409
O            3.41208664427356        1.04063828814061        2.96796769675065
H            5.39349709187276       -1.19282815099602       -0.70996525019113
H            5.63043802220515       -1.83177952955272        0.94382087901251
H            6.75920463546512       -0.60525194832783        0.29009923599445
H            3.39702391440333       -1.05001224921962        1.44106792989028
H            1.52325928332651       -1.44956499517285        0.02350043110968
H            1.80070772339120        0.31902823524972       -2.45257444193047
H           -0.06198777154229       -1.06903371775834       -3.21431203832017
H           -0.51313982487686        0.01416167252335       -2.15039867861045
H            0.88459174528099        1.50047078923829       -0.45550452636487
H           -1.04214965116051        2.07242021461298        0.40000458650836
H           -2.19227060851882       -1.03306848879735       -1.04382310701128
H           -3.46047512847401        0.97097341697273       -2.87428631873818
H           -4.36975951907969       -0.53919310739045       -2.64230421982270
H           -2.72391721985980       -1.61227655989647       -3.64020201170856
H           -4.62330281459875        0.62244449601940       -0.20354936395509
H           -4.30426419544187       -2.18450703847479       -0.28151909152106
H           -2.77827855599199       -1.23570627222087        1.40301336225960
H           -5.09655094091263       -0.87755570165156        1.99321887704434
H           -3.06854206156146        1.77817737709903        1.56793407833839
H           -1.07222339174065        1.37190422020109        2.81150612203339
H            1.13002655180893        0.13098309023810        2.24211925317812
H            1.18412718383296        2.89297152797521        1.66328235098907
H            3.29696763989885        1.98532713352554        1.13300374766494
H            2.90248522538683        1.68500997836005        3.48589264780480
