48
 energy: -84.750743567499 gnorm: 0.000702793826 xtb: 6.7.1 (edcfbbe)
C            5.44923055357568       -1.11741365519696        0.10815377752196
O            4.77591759251243        0.03705339411888        0.59836752669094
C            3.41565934057842       -0.14362453298317        0.81090713878484
O            2.76896304580300       -0.37104592131853       -0.40529651138176
C            1.34360726002296       -0.65342708695519       -0.24131914904973
C            0.65762938151679       -1.10239832038516       -1.49721512515634
O            0.52372501481652        0.13787140783232       -2.43614632539167
C            0.66915027847726        0.58528529428892        0.36975460234999
O           -0.68291087862095        0.22319452863959        0.56234341575098
C           -1.62415071105800        1.25014468338193        0.47571636242142
O           -2.21653452507362        1.23807401527893       -0.80290069114938
C           -2.70281495213870       -0.05803588275222       -1.15217189681188
C           -3.00638124313962       -0.06871399433197       -2.65138286576341
O           -1.88457834520162       -0.47537771841655       -3.40831356115848
C           -3.90955380959683       -0.37234784949936       -0.25904987525987
O           -4.43384075689733       -1.63036462904930       -0.59753044847849
C           -3.43130931878610       -0.33320477356950        1.20176417316889
O           -4.48701197008719       -0.58758368589964        2.10076879819992
C           -2.73745976245955        1.00142725241130        1.51692025655784
O           -2.19396904993368        1.01234131922302        2.80901865819172
C            1.34283294970026        1.02155534344836        1.67273901216747
O            0.82335060867694        2.27605889499580        2.04747250972697
C            2.86908436946449        1.11950755568835        1.49283176961124
O            3.49820373804439        1.39804798614005        2.71631961670140
H            5.03523880032133       -1.42109675325782       -0.85496449762125
H            5.35731439447831       -1.94182565639793        0.82216576383820
H            6.48840704112741       -0.82169851301216        0.00133034703197
H            3.24299623220621       -1.02478480329698        1.47634205817388
H            1.26168278746770       -1.48313225005401        0.48007560788276
H            1.36252889745881       -1.77390065197734       -2.01846746716790
H            1.21751302786037        0.16338362587015       -3.11941716877153
H           -0.38485955835385        0.02837626413863       -2.87593047009709
H            0.73688427973009        1.41954550007169       -0.34088043024800
H           -1.17714746871845        2.23664860478995        0.62103354169129
H           -1.91388775453416       -0.79792522849722       -0.94766406943496
H           -3.24799739697266        0.94523877644688       -2.97245791864503
H           -3.85529703155047       -0.73010534263159       -2.83785341797985
H           -1.74569527665531       -1.42542134206758       -3.26322941926368
H           -4.67570484989031        0.40858982168667       -0.40997710585506
H           -4.90457224541063       -1.98908608850423        0.17070838872586
H           -2.70612719669777       -1.13949998865100        1.35666494990614
H           -5.16548657081637        0.09940695824175        2.01068343441205
H           -3.46636096055282        1.82393553487411        1.40771393366481
H           -2.78862566739560        0.51380280105585        3.39402615218966
H            1.10986047500903        0.27243582907222        2.44775680564292
H            1.33828837617265        2.61075957001060        2.79859870417692
H            3.09722517562472        1.97083926368827        0.84226341722516
H            3.50103859692691        0.60999343942772        3.27957482110616
