48
 energy: -84.631532921029 gnorm: 0.000510164894 xtb: 6.7.1 (edcfbbe)
C            5.30096528262703       -1.64059965097241        0.68152162410529
O            4.76894401454814       -0.38509426000241        1.09925118275446
C            3.39441533477005       -0.27374481586709        0.95452711987341
O            3.05340436753922       -0.34306469300058       -0.40178553590137
C            1.65940704612107       -0.39651113936971       -0.64588831168428
C            1.58570245969211       -0.37272028266992       -2.17655802323897
O            0.14938308117263       -0.20727748983946       -2.68009936724010
C            0.88120009445360        0.74525633417375        0.07791180435578
O           -0.42328637118411        0.21646311999079        0.30219241926261
C           -1.46813547777087        1.14884957068757        0.31057230609644
O           -2.10072519576941        1.10563012577308       -0.93995401766706
C           -2.68252860430736       -0.18239534116914       -1.20180811907919
C           -2.97763712866139       -0.24834845561244       -2.68856664703577
O           -3.31952754231632       -1.74151939745705       -2.92121344360216
C           -3.85677157025591       -0.37355862626041       -0.21066020045300
O           -4.54186434346626       -1.56921157636917       -0.51599679058574
C           -3.26425868304091       -0.40963140002497        1.19967423811223
O           -4.24961697582910       -0.60888219470563        2.19109721458401
C           -2.46499212253467        0.87211192130744        1.45331367793224
O           -1.75937593389276        0.82339877412330        2.66361916653219
C            1.45546068380189        1.21206852222254        1.42766837891222
O            1.04214794636715        2.54588422733008        1.62594274097217
C            2.97800240058266        1.09432681397180        1.50532474959562
O            3.35769508834271        1.27538819186280        2.84467269290233
H            5.07317341764551       -1.81474341265685       -0.37062324834317
H            4.88123973353597       -2.44607795139148        1.29098554471904
H            6.37284232685565       -1.56374674649806        0.83606541214092
H            2.87415873268161       -1.08281820844114        1.51499065140380
H            1.26009842262826       -1.33824813905836       -0.22391901731088
H            2.04362517417370        0.59469392036240       -2.46670300028856
H           -0.48728855031603        0.36038829704396       -2.18841599960093
H           -0.24186917923645       -1.09410110109535       -2.79720883272183
H            0.83055836335191        1.63046818759511       -0.57187404783321
H           -1.07801585099128        2.16581634561713        0.43060292351903
H           -1.94651327028245       -0.96333319756753       -0.95225638252930
H           -3.92884973362198        0.29575156504857       -2.86282695086446
H           -4.02748572669409       -2.03777802732230       -2.30053205172246
H           -3.61216944904233       -1.81208271485462       -3.85097119717611
H           -4.54576026182015        0.48455039583216       -0.29940232874831
H           -4.98267867167464       -1.89650742860855        0.28236962067510
H           -2.58917181316493       -1.26885208632932        1.28526637651541
H           -4.86281011271171        0.14192155176530        2.20216559079574
H           -3.16722548699187        1.72602768069501        1.45859243613365
H           -2.31965893397416        0.38858507858903        3.32788462544386
H            1.02718169929641        0.56975197752244        2.21362271428122
H            1.41415759378980        2.85672260087748        2.46548890057258
H            3.43785437369214        1.85737610501753        0.85846973302681
H            4.30654631620152        1.09300503308956        2.92416561664321
