48
 energy: -84.858916202099 gnorm: 0.000731849609 xtb: 6.7.1 (edcfbbe)
C            5.71725241217840       -0.88288140431458        0.28354286648878
O            4.89481111059395        0.19615977252140        0.71990701394029
C            3.55400772034785       -0.10946307042000        0.86203043044888
O            2.99115268283413       -0.38255820532820       -0.40463099495368
C            1.60680175936069       -0.67665853430044       -0.36795902374587
C            1.16225157376201       -0.94942570833571       -1.81226378596765
O            1.48013415599263       -2.24263833188784       -2.24541778318363
C            0.80387651681552        0.48530533349047        0.23910385744249
O           -0.54207135871881        0.06916855944534        0.38148559882528
C           -1.51314002560693        1.08557913275378        0.27817435645672
O           -2.10404760665358        1.10069503615370       -0.98924738362691
C           -2.84443735332873       -0.07668515792428       -1.30444377178074
C           -3.41110279646207        0.09457565539776       -2.72123477748265
O           -2.49431592566457       -0.23444785205445       -3.73218047273152
C           -3.95984880361042       -0.30881190809963       -0.27679139844408
O           -4.62482464777921       -1.49834211221479       -0.60980816123504
C           -3.34922778030840       -0.38197865401640        1.12840105787733
O           -4.40167332153821       -0.54928850508158        2.04649859333788
C           -2.55166495980300        0.89742622466333        1.39562061968083
O           -1.94740789377282        0.80389908918221        2.65924618700672
C            1.37774988966665        0.84582217625139        1.61828748295958
O            0.69403045688815        1.96337394055284        2.13737471840198
C            2.87783126883746        1.11413929760746        1.49868641243031
O            3.36843263834519        1.37415516254718        2.78572863760041
H            5.44932025803491       -1.18224558366945       -0.72958194952118
H            5.61676386542533       -1.73451625804656        0.96165506730671
H            6.73252141358623       -0.49794672714439        0.30680768207491
H            3.41531494950672       -0.99497590537188        1.51866996708704
H            1.42690906067259       -1.57386418088376        0.24404055344885
H            1.61269218845288       -0.18891689074781       -2.45992041121633
H            0.07637691953507       -0.86339199296605       -1.86541023538911
H            2.44182184655293       -2.33145045967505       -2.30290989501573
H            0.86574641655705        1.35690247625481       -0.42411821767457
H           -1.04393394693567        2.07202549906243        0.38129064186835
H           -2.17422283767377       -0.94791891014530       -1.27591533650952
H           -3.65401715578687        1.14932896717436       -2.86279007243777
H           -4.32055487176261       -0.50903669563559       -2.80075363471130
H           -2.38752181893373       -1.19563640528137       -3.76822715991450
H           -4.65988702961517        0.54174529077286       -0.30401771317410
H           -5.22575991764569       -1.71987068443025        0.11901867031351
H           -2.65633979394184       -1.23580019565012        1.17874525371634
H           -4.04497979455045       -0.45903150028526        2.94226771295058
H           -3.24121117779519        1.75704616667583        1.36546190013914
H           -1.13274662687192        1.33806740531732        2.66427380041893
H            1.22738593765000       -0.01460326901395        2.28912313947721
H            1.21934930940086        2.30761580398768        2.87936180977429
H            3.04716921578396        1.97182952222465        0.83085447435202
H            4.32643188276066        1.50981559197428        2.74193672471404
