48
 energy: -84.755027307742 gnorm: 0.000560884286 xtb: 6.7.1 (edcfbbe)
C            5.46818007859945       -1.03048842342951        0.06747981520181
O            4.75157522180122        0.12661861619516        0.48433375174778
C            3.40628100739640       -0.09810731658326        0.75818450194124
O            2.72793190244785       -0.44282985031907       -0.41061922730925
C            1.30993788252561       -0.71732674909417       -0.17258810352829
C            0.57179090751757       -1.26413250640217       -1.35516029093017
O            0.52587476059404       -0.14628463254050       -2.43633224197398
C            0.65008896069778        0.56482277332855        0.36768517067796
O           -0.70359882625910        0.22341985266535        0.57855452223343
C           -1.65821135530291        1.23856363507731        0.43876854963792
O           -2.25365614289257        1.16384655282100       -0.83421043335699
C           -2.67555368851364       -0.16507556301063       -1.15481396728863
C           -3.03048490406599       -0.16436168875382       -2.64242615335356
O           -1.93093361886970        0.28770167222327       -3.40672085401361
C           -3.84282905170229       -0.54982192480969       -0.23230438008361
O           -4.35354182577432       -1.82423983414235       -0.51619859167218
C           -3.35919524011356       -0.42434693840274        1.22983945631123
O           -4.35920829029677       -0.76022909303144        2.15643678771329
C           -2.76848909230827        0.98105609607277        1.48826175272518
O           -2.30722958320056        1.12579692584863        2.80199054712378
C            1.34808782826693        1.06362594989614        1.63342494143586
O            0.79227750800380        2.30216252421653        2.00017431992224
C            2.85125265912145        1.20077265835674        1.36270390033174
O            3.47903887333946        1.51262145393008        2.57954212177814
H            5.03676609506219       -1.43723580322606       -0.84843898214434
H            5.44500714521137       -1.79187369918333        0.85298540287787
H            6.48588382780404       -0.69410102282319       -0.10679139987198
H            3.29567774399031       -0.92045330847915        1.50278131856457
H            1.25681696112198       -1.48768604508767        0.61384526208174
H            1.19888421776077       -2.05919557613612       -1.79339572170246
H            1.20565630830316       -0.26566481050924       -3.12322750082914
H           -0.39573801785545       -0.17373611606941       -2.85916624045776
H            0.72390609450289        1.35406716777514       -0.39206846534054
H           -1.23091216838628        2.23827171528736        0.54657529179800
H           -1.82569673649353       -0.84917583265311       -0.99159899127929
H           -3.90408332078936        0.46831201504169       -2.81954656134441
H           -3.25099272271676       -1.18213452029934       -2.96280129459638
H           -1.82504834785117        1.23407627578975       -3.22205723041828
H           -4.67759666552101        0.14160374877530       -0.40105765172795
H           -3.69928463035555       -2.49548468846156       -0.27399743145424
H           -2.56070432967865       -1.15800517138641        1.39501922480629
H           -5.10406474915625       -0.14811497367109        2.07516882931052
H           -3.54310311121749        1.74484954357417        1.36165704778449
H           -1.61290395941518        0.47070495724145        2.95878264887016
H            1.20877642426645        0.32751567386583        2.44073793705535
H            1.29257160644277        2.65333158319798        2.75262457462474
H            3.00932615756709        2.00185177313782        0.62445968174281
H            4.43448521361494        1.57738496011949        2.43386234480999
