48
 energy: -84.852603017517 gnorm: 0.000535979332 xtb: 6.7.1 (edcfbbe)
C            5.47976823367605       -1.30443070932473        0.35836619751300
O            4.87614828478788       -0.06780558030245        0.73085982911963
C            3.49778795779905       -0.10232344232869        0.80205759440908
O            2.96879266812289       -0.32712365221594       -0.48773582156448
C            1.56728398002292       -0.48330550761555       -0.50559448731921
C            1.15912393833348       -0.68578258885816       -1.96909511188505
O            1.29578840853421        0.52269412479098       -2.67591866386648
C            0.81972281917043        0.70846596134998        0.11557949293585
O           -0.49709629007611        0.24310447202941        0.38425015356298
C           -1.52072116534066        1.20174313776030        0.33847526267766
O           -2.21419538212696        1.15782151567413       -0.87699311696706
C           -2.84197975301567       -0.09364032046892       -1.15036827284418
C           -3.48532090086606        0.04252880373147       -2.53754899681348
O           -4.55900954348759        0.94723234825492       -2.54595573704341
C           -3.86928472349621       -0.43154136087950       -0.05583178679285
O           -4.41822814113791       -1.71787846271166       -0.21992848356120
C           -3.16895896288312       -0.41155572043277        1.30732006461810
O           -4.08141755475383       -0.59735743367593        2.36268039811893
C           -2.48360597281232        0.94177451238515        1.51299164444472
O           -1.75983071565780        0.98737435948061        2.70975060246127
C            1.46092455645971        1.23512950142392        1.40640591292703
O            0.97449505390989        2.53806545217942        1.62271213312449
C            2.99777947003775        1.24696447573141        1.33420014875496
O            3.55073294057991        1.59754320029615        2.57257930066961
H            5.16606623574918       -1.59515250581436       -0.64501545390515
H            5.21058464245565       -2.08829719641222        1.07246391744148
H            6.54944383554124       -1.12021305808701        0.38422354007708
H            3.15604000940205       -0.92549460027036        1.47163091559497
H            1.28993937037675       -1.38042306597972        0.07306369213994
H            1.80329318689521       -1.46645066628267       -2.38108367696067
H            0.11361747059884       -1.02018157885579       -1.99007682423307
H            1.50765130496114        0.33830018777986       -3.60122837757629
H            0.79575011346345        1.52759052662458       -0.61378639902233
H           -1.10966967914034        2.21309472704672        0.41781845807939
H           -2.08436676848981       -0.88892538751044       -1.17181826518643
H           -2.70670231141960        0.35417081014346       -3.24256070771944
H           -3.88749583876779       -0.92139550755909       -2.85255532796207
H           -4.21807484698386        1.82724574613754       -2.33230684499604
H           -4.65817580648998        0.33343300250461       -0.05684033363770
H           -5.06535055496254       -1.70562143426514       -0.93845726250685
H           -2.40114351982661       -1.19974972314160        1.32007446691250
H           -4.59776398875826       -1.39674573368787        2.17869472817194
H           -3.25440269491990        1.72882805331816        1.49993279289856
H           -2.34620521255488        0.68333110003559        3.42218387260645
H            1.13730628867707        0.57660651090168        2.22965495068126
H            1.46376318752122        2.93064624447938        2.36360094360058
H            3.32238211809319        2.02047966794594        0.63040148697726
H            3.43963725113639        0.87523680417361        3.20886444218256
