48
 energy: -84.853130127653 gnorm: 0.000720194400 xtb: 6.7.1 (edcfbbe)
C            5.57539875901603       -0.99258026559366        0.26042830776905
O            4.84535629742794        0.14922316318141        0.70353204795033
C            3.48356267568016       -0.04735274346683        0.80920583477340
O            2.93828540748468       -0.20831141586375       -0.48495578262267
C            1.54537310318843       -0.45430228600464       -0.51770883703441
C            1.16570729866290       -0.51813635359387       -2.00729457329246
O            1.51137739033439        0.66221314628508       -2.67888758742860
C            0.74318796070382        0.64814525854690        0.19128137771428
O           -0.57880519964776        0.16336237243852        0.37122127420835
C           -1.59645137667361        1.13556078605440        0.36931000817162
O           -2.24615181392199        1.18571775731960       -0.86782901460167
C           -2.88797085587981       -0.04292016285635       -1.20032478184915
C           -3.43275589466051        0.07617043536098       -2.62123786642530
O           -2.42046813823575       -0.32042089127191       -3.51876686932822
C           -3.98816942491183       -0.37327299735833       -0.17018400293292
O           -4.68719790779071       -1.53578555859995       -0.51523832519032
C           -3.34481915441840       -0.45832834610648        1.22212544316260
O           -4.34853194672254       -0.68375148392908        2.17882308318487
C           -2.58161444120167        0.84041264367377        1.51157475395562
O           -1.92200678063358        0.70174957743585        2.74404187040277
C            1.33986135294271        0.95091065944976        1.57506526714434
O            0.68896654724753        2.06656740457728        2.13982625929097
C            2.85423970002046        1.17895782905243        1.48557975769451
O            3.38534759752010        1.46620384865046        2.74841409205164
H            5.25078442739817       -1.29370902309243       -0.73627525187556
H            5.44071878841295       -1.82339973851941        0.95907021038672
H            6.61487704300486       -0.67977847506292        0.24238463836429
H            3.25953806587496       -0.96132077574897        1.40428065912953
H            1.31505744234848       -1.41185480972446       -0.02814576376911
H            1.66152511473981       -1.38371702179497       -2.46168412516350
H            0.08451631559622       -0.62503319265558       -2.10770573105507
H            2.46952338996425        0.78564147565323       -2.60229191151783
H            0.74326419152130        1.55300931751287       -0.42741689038224
H           -1.16832759816758        2.13624441345471        0.50811658521188
H           -2.13897924896782       -0.84826442121519       -1.18931593066925
H           -3.72554628262224        1.11839344800459       -2.78535512429216
H           -4.30940246075679       -0.57735642328927       -2.71102215386822
H           -2.71467530127468       -0.15627125505351       -4.42564985570843
H           -4.73588942959517        0.42716172856153       -0.16555728147169
H           -4.13063733021599       -2.31377313103777       -0.36303896580463
H           -2.61411381461180       -1.28408333900037        1.23328605174037
H           -3.95140324942864       -0.60212767179147        3.05908593050508
H           -3.30615626619100        1.66972252213242        1.55299080662197
H           -1.19774951330115        1.34729344863758        2.79313754399329
H            1.14803525653126        0.06851001129108        2.20992243200816
H            1.30335547879057        2.48066342480435        2.77042808379032
H            3.06639598725015        2.05573195240066        0.86526604844032
H            3.43609384029756        0.66383015098149        3.28904129877493
