48
 energy: -84.855308185683 gnorm: 0.000641821112 xtb: 6.7.1 (edcfbbe)
C            5.66310861758097       -0.94609367922238        0.45211557812322
O            4.88535292297037        0.19006192139692        0.82290611435952
C            3.52570422467839       -0.04484402973282        0.90522044849154
O            3.01046847491665       -0.25775435561211       -0.39175728496299
C            1.62003701319873       -0.51272405946651       -0.43326114208124
C            1.25547373448316       -0.63076573577035       -1.92250520861934
O            1.63186243201973        0.51106740262574       -2.64119010823402
C            0.80026266686929        0.60876046830473        0.22518663558417
O           -0.52801650554446        0.13296427142577        0.37553243771624
C           -1.54285659539311        1.10966958985677        0.32066689576921
O           -2.16030212613039        1.13939946217705       -0.93269995726400
C           -2.84953531501058       -0.06471988336166       -1.26461414967784
C           -3.46281964587986        0.11679388575282       -2.66273411969917
O           -2.60927884583051       -0.27575109167589       -3.70698112153508
C           -3.93971392379129       -0.38568314324593       -0.21750005960462
O           -4.63593015428296       -1.55348446644494       -0.55827490519067
C           -3.29951197489620       -0.46058749148505        1.17407728827068
O           -4.30326302678882       -0.69127586641388        2.12919738616605
C           -2.54958431107513        0.84744583429402        1.45058249317912
O           -1.91363936180484        0.74474627615498        2.69862869806554
C            1.36354955856358        0.94693754384868        1.61488002721419
O            0.68200277177231        2.06358339536098        2.13907286213901
C            2.86998347569085        1.19248199892789        1.53428525394486
O            3.33252357314445        1.43148945741587        2.83594816934291
H            5.36780307473129       -1.30935255687079       -0.53260149557207
H            5.54238325524797       -1.74262996334473        1.19146767616619
H            6.69163131634963       -0.59863599430152        0.43472741915613
H            3.31351992245785       -0.93664593109133        1.53223762086518
H            1.38928163642604       -1.45243471792575        0.08943734634213
H            1.73113995169520       -1.52706400951623       -2.33708933285366
H            0.17232216452679       -0.71095552699256       -2.01878649765196
H            2.59059861372272        0.62258642464807       -2.55546532695704
H            0.82093971477187        1.49853442790668       -0.41528094993344
H           -1.11172029257447        2.11108698092486        0.44480586852374
H           -2.12439364509375       -0.89225202592054       -1.28059572173675
H           -3.65268836448889        1.18218634832095       -2.80561586384462
H           -4.40962480909076       -0.43153018705069       -2.69876004818698
H           -2.61360338920935       -1.24013530426573       -3.78510965891380
H           -4.68581519957296        0.41688738968893       -0.21855488031636
H           -4.14168977521729       -2.33244903353363       -0.26371320459284
H           -2.55973844765838       -1.27858384847539        1.19335547134968
H           -3.91749630172286       -0.57038493867674        3.01004919581515
H           -3.27599467961531        1.67605893727622        1.45683241094041
H           -1.15227691611582        1.34939492167881        2.71890616764965
H            1.19021240601785        0.07823412292178        2.27065993415607
H            1.20930765609772        2.40464658265012        2.88080920703543
H            3.07313490262677        2.05209921335887        0.87895208818201
H            4.29584152791098        1.53509396191681        2.81912539359378
