48
 energy: -84.856199949407 gnorm: 0.000409321952 xtb: 6.7.1 (edcfbbe)
C            5.60059785332919       -1.03196375412364        0.28453806550809
O            4.84775011951927        0.12329464791990        0.64449870162034
C            3.49437876125834       -0.10180085855131        0.79399099033084
O            2.93055148575230       -0.28402048270914       -0.48886701495212
C            1.54314269290865       -0.54938407964778       -0.48010247596610
C            1.12891368239672       -0.74722784443593       -1.94645670286269
O            1.37797541202785        0.39488105257957       -2.71991081235771
C            0.75653795901000        0.60745006519321        0.15420320040585
O           -0.57523946549892        0.15118545212164        0.35442001210267
C           -1.58923282987708        1.12149880992634        0.29554703266461
O           -2.24084151609765        1.11917204460174       -0.94220399409701
C           -2.91263007301695       -0.09835158157624       -1.25205027338976
C           -3.58411896677354        0.10725515650741       -2.61582318736098
O           -4.47561056358600        1.19091168165762       -2.61189642950310
C           -3.93909667182197       -0.47116947823843       -0.17561677514777
O           -4.43588494171580       -1.74594335369301       -0.49294130119143
C           -3.28105339845896       -0.46746629721343        1.21055393275577
O           -4.28839955105778       -0.70669619275045        2.16290688611901
C           -2.57771175752346        0.87131109663163        1.44861415233331
O           -1.93579724592782        0.81217134166173        2.69563641879765
C            1.34935014261407        1.00669370752927        1.51801298871978
O            0.76829468110352        2.19220349296610        2.01294727339796
C            2.88075458532404        1.11785209745782        1.49352096213081
O            3.40025777616930        1.16140737604886        2.79483396322879
H            5.26203506248169       -1.42751976097483       -0.67455290215481
H            5.50654395462602       -1.80010731603259        1.05717730405896
H            6.63004692237632       -0.69414814873097        0.21349467594857
H            3.30272012852948       -1.00280177943285        1.41191994861248
H            1.33139077376662       -1.46369846162463        0.09314658178464
H            1.66127635507485       -1.61625606072321       -2.34842639492532
H            0.05395614425505       -0.92776765846557       -1.98944135531699
H            2.33151851432581        0.56684939619675       -2.70815454089287
H            0.76750348486187        1.45941460049165       -0.53857519558133
H           -1.16994879438975        2.13112219088426        0.38305799130486
H           -2.18731948541584       -0.91973677995652       -1.32268855000894
H           -2.80381783887766        0.25025733635665       -3.37296916568084
H           -4.16922949411844       -0.78251506525084       -2.85155829609677
H           -3.97619619923047        1.99009258614534       -2.38910337557181
H           -4.75247501677590        0.27073155671499       -0.17976252645686
H           -5.03874652291326       -2.01773345674855        0.21608892139498
H           -2.52018137153180       -1.26221213422058        1.24661384478780
H           -3.90687992612166       -0.59779874387721        3.04624591884519
H           -3.33039292318269        1.67590333052593        1.43589416900718
H           -1.29387843429671        1.53517977629823        2.77584114010440
H            1.06784691440701        0.22781058731061        2.23655393182709
H            1.07547731005704        2.94960388208646        1.49067884351801
H            3.18916930657540        2.00709977647805        0.92113812459093
H            2.94567796859073        1.85739925704862        3.29653831699029
