48
 energy: -84.847060899278 gnorm: 0.000709374589 xtb: 6.7.1 (edcfbbe)
C            5.67201717125772       -1.06598460293278        0.31479645451753
O            4.94069493405596        0.10652072307152        0.66373971248451
C            3.58439899477144       -0.09129279175605        0.82475531122987
O            3.00986533599865       -0.27137935690441       -0.45320616666796
C            1.61515632936358       -0.49141721989352       -0.44632749683175
C            1.20771651606457       -0.64156385590663       -1.92149943467248
O            1.56981313046113        0.48094305359178       -2.67628082282780
C            0.84427171682815        0.66806099114948        0.20947161170767
O           -0.49135144065768        0.20353634031895        0.39213603467724
C           -1.51465984977319        1.17404385331764        0.35083916296503
O           -2.14974561677839        1.20138228386327       -0.89634239033311
C           -2.80923550077363       -0.00327928521384       -1.26864268198418
C           -3.45447023405980        0.23145022254440       -2.64439797154440
O           -2.56531550771333        0.08968899782266       -3.72023982252432
C           -3.86973019746168       -0.38512711094119       -0.22326302118258
O           -4.52761499465300       -1.58473688883570       -0.54006616990493
C           -3.22398870496798       -0.46541647747118        1.16875734845928
O           -4.18525364421410       -0.73547913809408        2.15824948446167
C           -2.52861886269562        0.86621330444571        1.48127208590014
O           -1.92233921713758        0.88662605732371        2.73885598535641
C            1.46199018336237        1.07360966956210        1.55841375412644
O            0.93868394992781        2.28357228660475        2.04841038586308
C            2.99798329367999        1.14786482711049        1.50896581543037
O            3.52742635761878        1.21071359758790        2.80538327760468
H            5.31094406658782       -1.47772192919309       -0.62913460312069
H            5.58402982213094       -1.81560134910029        1.10595003104481
H            6.70383152169578       -0.74239693248886        0.21668463641939
H            3.37992527319391       -0.98311309958463        1.45186146950791
H            1.37870620486954       -1.41262221382941        0.10717074017417
H            1.66735191889649       -1.55128903544823       -2.32465740118750
H            0.12248011583097       -0.71802555730873       -1.98622173874015
H            2.53135365785497        0.58825568278451       -2.61829298317361
H            0.84991318809708        1.52281743063446       -0.48033808996276
H           -1.11075049386890        2.17957153556942        0.49587597061424
H           -2.06462509453696       -0.81241913404372       -1.33336844135585
H           -3.80314677688642        1.26527940484502       -2.67462592934294
H           -4.31172177300646       -0.44332071130552       -2.74555581661399
H           -2.37551481293349       -0.84705038181667       -3.87016732076848
H           -4.64986337279123        0.38364627948118       -0.20611451376442
H           -3.88440440136843       -2.30772218971427       -0.59887376640468
H           -2.45726074179479       -1.26092910303651        1.16630624399435
H           -4.83515349604713       -1.35759721225952        1.79292550491306
H           -3.27727608381886        1.66391459178960        1.50156426076005
H           -1.30460459141498        0.14442583953066        2.80561626852130
H            1.18269922596832        0.31852029622354        2.30199226235983
H            1.20350589057012        3.01515146551126        1.47026249916764
H            3.31435404750193        2.02165398031660        0.91747899614198
H            3.06728956758365        1.91015386094802        3.29810830105915
