48
 energy: -84.852735862667 gnorm: 0.000397915227 xtb: 6.7.1 (edcfbbe)
C            5.68279033893735       -0.76158001290088       -0.05748132297002
O            4.88855640372909        0.31117119210117        0.44471595986026
C            3.57669729811902       -0.02684002831779        0.70865829953505
O            2.92680365295987       -0.31458304286685       -0.51238189286180
C            1.57381730702450       -0.68785012473180       -0.36801562545951
C            1.06263210938763       -1.07049156278592       -1.75762234416438
O            1.46091291913223       -2.39000170524568       -2.03578393105177
C            0.77455880565783        0.47137448674520        0.24480032897326
O           -0.56215700201727        0.04601454196483        0.46292729219422
C           -1.55157601535988        1.04295647976836        0.37956573164465
O           -2.20026252820167        1.00754891003104       -0.85885143122248
C           -2.92092746925660       -0.20210757560888       -1.10796175325877
C           -3.53118609986237       -0.05930906731073       -2.50916394170887
O           -4.52386701337516        0.93159341485474       -2.56510376016431
C           -3.98803306864949       -0.42884505642602       -0.02153853047442
O           -4.64347407600544       -1.66483542685009       -0.16980793965237
C           -3.30422796312969       -0.44600599995841        1.35185453542900
O           -4.23614076413255       -0.55717843818236        2.39902421851445
C           -2.53896125148856        0.86304766600408        1.54249549203221
O           -1.80744388215408        0.89170708012583        2.73885741363822
C            1.40684568858310        0.87101468815437        1.59696305505530
O            0.79414793103005        2.01107313991108        2.14535134205892
C            2.90615021793106        1.16293651368087        1.42533081842361
O            3.53381959915691        1.45933080907840        2.63714157809832
H            5.26788076343930       -1.13763376676519       -0.99381049652817
H            5.73243661129788       -1.57139590475254        0.67620876421816
H            6.66874497933717       -0.33689351843810       -0.21920008519796
H            3.52382126537087       -0.92937122596740        1.35900144025381
H            1.49044200803736       -1.56664443258679        0.28978917865288
H            1.49213098425267       -0.36344697177760       -2.47554846143865
H           -0.03078055251221       -0.98561822985330       -1.75989776212864
H            1.27024093250359       -2.59567356929249       -2.96255897770423
H            0.79944979368369        1.32857452110032       -0.43859219815725
H           -1.10083592420066        2.04099793192708        0.43348376469826
H           -2.22853848779763       -1.05485661702063       -1.09350874548829
H           -2.72051990536914        0.15776210252357       -3.21383878362189
H           -4.00917357095727       -0.99674140127871       -2.79662025175741
H           -4.11278202293880        1.78940861703382       -2.38914539346635
H           -4.70718309501475        0.40172015359061       -0.04792663470766
H           -5.28402762211130       -1.61171256535833       -0.89208574492690
H           -2.59057531886673       -1.28328476440029        1.37893094256967
H           -4.80523908659676       -1.32063857291303        2.21932998883816
H           -3.25953336953428        1.69482029383395        1.51655083688639
H           -2.39765007168250        0.62165069664696        3.46092402702709
H            1.28737426321343        0.01394324054327        2.27756953411043
H           -0.05827667453918        1.75396059936923        2.54188294602651
H            3.03720223415703        2.05434855249437        0.80496999699853
H            3.39489474041337        0.74234397326780        3.27456857573131
