48
 energy: -84.851600845705 gnorm: 0.000431259892 xtb: 6.7.1 (edcfbbe)
C            5.69268616794562       -0.83701713012850        0.02347568847649
O            4.90115572730594        0.24621714718526        0.50519602251908
C            3.58280118028071       -0.08011324629091        0.75232588579077
O            2.93747953198675       -0.29349663195188       -0.48548426181917
C            1.57299651766735       -0.62957791547231       -0.37017282442951
C            1.07935130445212       -0.98995521252592       -1.77228479072937
O            1.44457866362608       -2.32018069228751       -2.04382691473294
C            0.78903795273077        0.54696960313606        0.23825131531386
O           -0.56071119225126        0.13285420233682        0.41336516563290
C           -1.55399001855075        1.12986185611514        0.32153384806902
O           -2.16405361567550        1.12412008994208       -0.93919709210125
C           -2.85993479374244       -0.07359844234348       -1.27588230162474
C           -3.47465077557482        0.15761808280138       -2.66268599369546
O           -4.32971236823304        1.26927106563172       -2.68691126035020
C           -3.93660613568745       -0.42120183265735       -0.24225917708287
O           -4.46214636421593       -1.67689577036075       -0.58833832314856
C           -3.31412346004743       -0.44352197260282        1.15831134113044
O           -4.34106936728301       -0.67181321791830        2.09426747672062
C           -2.60127361316860        0.88911961069308        1.42566508701265
O           -2.04876246752938        0.92161059890134        2.71227026106061
C            1.41379688685307        0.92378943144373        1.59453282869513
O            0.82737088142252        2.06967895243518        2.15991561844553
C            2.94084276580384        1.09063942912230        1.50835134978018
O            3.50500742060282        1.12638205706592        2.79075745570299
H            5.27757877369458       -1.22888698126178       -0.90654571871943
H            5.73965571668249       -1.63223264229992        0.77263004301324
H            6.68026890266065       -0.41864703244375       -0.14548112386880
H            3.50607073233666       -0.99673538929177        1.37314851535765
H            1.45269506749093       -1.51013232287227        0.27870621322787
H            1.54759476331493       -0.29659557462054       -2.47989362647111
H           -0.01023055541139       -0.87191276846140       -1.80048101709778
H            1.22579325925636       -2.53368667944619       -2.96244935060359
H            0.83623141535622        1.39886683652275       -0.45217479050293
H           -1.12270220660413        2.12980933267822        0.42999449410030
H           -2.16005878768431       -0.91851088575579       -1.32299574785273
H           -2.66556293837739        0.27776538950996       -3.39329882905701
H           -4.07929028621238       -0.71228699120804       -2.92201548075803
H           -3.81952473266825        2.04796878479392       -2.41985270000492
H           -4.72552636469649        0.34613346445042       -0.26679857360918
H           -5.08565055125243       -1.94335040878579        0.10426109416250
H           -2.57353288702424       -1.25925107323205        1.20091346976664
H           -4.01904685493248       -0.41463117785006        2.97201090956519
H           -3.33747379986095        1.69952880406419        1.38985570394504
H           -1.22770091832491        0.40863082225169        2.71687499474697
H            1.20321858336248        0.11058722108119        2.29920231199167
H            1.08284556566330        2.85698823165896        1.65576942256625
H            3.18899116254538        2.00569456570210        0.94722880554471
H            3.03679412006242        1.78860543488759        3.32590662862672
