48
 energy: -84.857808172944 gnorm: 0.000438965439 xtb: 6.7.1 (edcfbbe)
C            5.61784472208223       -0.94194807733552        0.09520221201739
O            4.84789996556078        0.16808700806208        0.55261111535253
C            3.50776167894278       -0.10822192225536        0.75521982238278
O            2.90182117328091       -0.41771745261200       -0.48003305587452
C            1.52512196792625       -0.72038780414921       -0.38957234837847
C            1.05442939573533       -1.06622431432605       -1.81201992268881
O            1.48475050780206       -2.33020579984924       -2.23646322227347
C            0.73792802113804        0.46652423439996        0.19243855757631
O           -0.59855075713613        0.05338984684037        0.41688161853513
C           -1.57746849948085        1.05993960441156        0.30342082418114
O           -2.21975662212744        1.00075385804795       -0.93780444069860
C           -2.91916920121036       -0.22297729743109       -1.14589149697888
C           -3.45070086401043       -0.22461603209311       -2.57513575036104
O           -2.38207305535149       -0.52627918948567       -3.44278316690227
C           -4.02928774658454       -0.38159185016315       -0.10040656556023
O           -4.70225457273123       -1.58948942997644       -0.33306990178816
C           -3.39568939295235       -0.35394885709667        1.29707025814826
O           -4.43417579034199       -0.44148611725509        2.24161768595962
C           -2.57767995307736        0.93047721998690        1.46468178252881
O           -1.93203018763138        0.89539261081648        2.71083054131639
C            1.36375907872895        0.89476024786441        1.53070635590849
O            0.70142155196263        2.04011890536246        2.01626353149880
C            2.86190807918563        1.14755497058272        1.35864698113085
O            3.38677783927658        1.46122102361487        2.62029802221181
H            5.22860521480570       -1.30963873928614       -0.85482081234893
H            5.59982853657772       -1.74395361185826        0.83838957869677
H            6.62701148742980       -0.56073498746084       -0.02792298670517
H            3.38064693306403       -0.96561432945079        1.45135703346266
H            1.37720445330681       -1.58321620391505        0.27924663619112
H            1.50813461636673       -0.34971609936159       -2.49935702997808
H           -0.03519671516919       -0.97263882597884       -1.86699076606278
H            1.00212144773941       -3.02003054687130       -1.75919416884065
H            0.76636716511077        1.30433084061360       -0.51413082822723
H           -1.11061453868944        2.05209830140364        0.33646814671262
H           -2.22228007410925       -1.06456715291774       -1.03796705040563
H           -4.23602657539288       -0.98630307198038       -2.63931840725503
H           -3.86601465754670        0.76648970207058       -2.78833482698837
H           -2.69594488284398       -0.49401865383188       -4.35775137989587
H           -4.72667103490699        0.46761985323399       -0.18182295416929
H           -5.28085982280670       -1.76132172556963        0.42695113871297
H           -2.71134373999427       -1.21017616712655        1.39815364312942
H           -4.05859244285616       -0.30571949859302        3.12388494197334
H           -3.26316019922647        1.79256815660342        1.41358645556496
H           -1.12800014365945        1.44215677772387        2.67078702096797
H            1.23052782327260        0.06954160694655        2.24838976289652
H            1.26142219474393        2.42553507329817        2.71112009154730
H            3.01902039159492        1.97296431508559        0.64851569985638
H            4.34631722920047        1.57446761978676        2.54799565412520
