48
 energy: -84.743161681901 gnorm: 0.000679216458 xtb: 6.7.1 (edcfbbe)
C            5.62521558946421       -1.01695822947007        0.35901343944941
O            4.87865078511943        0.14280102963552        0.72034015388986
C            3.51916486208924       -0.06180419094910        0.83605710575450
O            2.97848966769715       -0.31449941889611       -0.44504050079398
C            1.58783046148128       -0.57253526362789       -0.46314286311760
C            1.20641759257192       -0.74058237298302       -1.94342871835789
O            1.54299312074291        0.39180461479497       -2.69547216432862
C            0.77523542533158        0.56908712294135        0.16766584659411
O           -0.54590575211488        0.09169243022920        0.36598529043222
C           -1.56773296092762        1.05997529947921        0.29527230889265
O           -2.21182373992595        1.04214984066486       -0.93669469280483
C           -2.87857312813876       -0.19777976934685       -1.23634450083790
C           -3.36977432335409       -0.10530060137730       -2.66778386447679
O           -4.23878262412755        1.24573246821297       -2.67294063564852
C           -3.94864774436174       -0.48890039470906       -0.14637027565892
O           -4.62478022839867       -1.69389516391771       -0.41073491532634
C           -3.29426679811932       -0.49039885987011        1.24188537978812
O           -4.28429143204588       -0.67951634333171        2.22459764290205
C           -2.54944417356101        0.83086765194658        1.45495762959611
O           -1.88804526902741        0.78049287574524        2.69431638957809
C            1.36382796109178        0.96628987568639        1.53057895946904
O            0.70576264652049        2.11444873743272        2.01777756948972
C            2.87635516322319        1.20045871896852        1.42782498862719
O            3.40288910205872        1.57822061266524        2.66855059247352
H            5.31580010616635       -1.38446099934850       -0.62009694789398
H            5.49068032594307       -1.80331425340133        1.10739908333745
H            6.66150002718333       -0.69437940396480        0.33322422840693
H            3.30325474570686       -0.93615273011723        1.49107827013777
H            1.36311894443089       -1.49597198249506        0.09103507529060
H            1.70274393009821       -1.63457676359347       -2.33821439297061
H            0.12462599766458       -0.85841809707870       -2.02481586642240
H            2.50174101451310        0.52144977374355       -2.64075012327440
H            0.77732686388896        1.43163814426979       -0.50911769452912
H           -1.13742784985145        2.06714330016099        0.38063514157233
H           -2.14437157891490       -1.01871172754521       -1.19884755518578
H           -3.58670343141663        1.88504918022104       -2.31934381781875
H           -4.16107926113350       -0.87449474634918       -2.76701518672189
H           -4.36647765772486        1.43256209448424       -3.62559269002235
H           -4.72748564927775        0.28158041526914       -0.16849667163034
H           -4.00367399641566       -2.43304680667876       -0.34113982681005
H           -2.55188815346780       -1.30536726225631        1.28890707485705
H           -3.87427821897210       -0.55027629783625        3.09317541125583
H           -3.28519059808523        1.65187920625924        1.44846136502480
H           -1.16909402773853        1.43481354341211        2.69730857991176
H            1.17562156451479        0.12741540149114        2.22297872620482
H            1.31548080369872        2.56981167538571        2.62435808252690
H            3.08041022429369        2.03534519188303        0.74956526516658
H            3.47812867640508        0.81290247711703        3.25716833003838
