48
 energy: -84.853522365585 gnorm: 0.000491212225 xtb: 6.7.1 (edcfbbe)
C            5.74870688817002       -0.89591967532783        0.23407798579638
O            4.94148082196263        0.19549723925961        0.67034291215117
C            3.59961117297998       -0.10311906225113        0.81943760780807
O            3.03523223484439       -0.33849403807327       -0.45162184567890
C            1.65512454803401       -0.64219654480197       -0.41144887609642
C            1.22942054104084       -0.91231330548391       -1.86168906887963
O            1.44892657641467        0.19119123256230       -2.69477195185587
C            0.86066549534708        0.52086749521312        0.19821952499071
O           -0.49339403783671        0.11407875125143        0.33995318868909
C           -1.45710136431911        1.13532188590098        0.24183742048607
O           -2.06306150061533        1.17463405178379       -1.01783276131004
C           -2.78515271250323       -0.00382879069368       -1.36160755843179
C           -3.43181571500339        0.22403577547693       -2.73556390924038
O           -2.53149401958738        0.17916128262781       -3.80856476402886
C           -3.86494629351871       -0.32631190735796       -0.31519831572518
O           -4.45589776147434       -1.55193543372300       -0.66217814760914
C           -3.24170801452512       -0.38144179063670        1.08684345602651
O           -4.20543994352342       -0.64911306059969        2.07665320339696
C           -2.49800235565749        0.92863023697673        1.35469666010991
O           -1.83429552387498        0.93079472300148        2.59137824675958
C            1.42153086075441        0.88648627333618        1.59058697057318
O            0.83640167120361        2.06620781274586        2.08596418908300
C            2.93759004335688        1.09183621835038        1.52737695372112
O            3.41984216397919        1.19963750863220        2.83913208673379
H            5.42909900687345       -1.24089176158998       -0.74972413222798
H            5.68973602122661       -1.71886517105459        0.95179208405913
H            6.76078664883795       -0.50519870479618        0.18835154935259
H            3.46207155446956       -1.00977665816908        1.44733218234353
H            1.48166580787633       -1.54086410344942        0.19937365922664
H            1.77311724232482       -1.79148939287309       -2.22820535152037
H            0.15768538629492       -1.11015188857024       -1.88058425875284
H            2.39053348662969        0.41506904194379       -2.66073522652341
H            0.92921497686586        1.38878586219931       -0.46845290467037
H           -0.98827640781073        2.11958395045472        0.35584862494458
H           -2.09236908757812       -0.85613631714211       -1.40766947166596
H           -3.85783631817351        1.22920777646182       -2.74843256003933
H           -4.22927245637601       -0.51822899326366       -2.85679247251123
H           -2.19541903374673       -0.72173440541019       -3.91445492956960
H           -4.62110712857952        0.47795096424879       -0.33654233776910
H           -4.93011900996502       -1.90007549690996        0.11042868402594
H           -2.52585335434074       -1.20893310644708        1.13453667254862
H           -4.88224559766942        0.04612250925510        2.07676789493660
H           -3.20860165641590        1.77026216106099        1.30546376433399
H           -2.37902581149970        0.44954846033502        3.23653986958295
H            1.22117094918252        0.04795418664432        2.27088988548219
H           -0.01023810972280        1.84583146423793        2.50990188016057
H            3.14764066174630        2.00228101064501        0.95049628319551
H            4.36076646487356        1.42999172858927        2.81160146139817
