48
 energy: -84.848314156958 gnorm: 0.000409287682 xtb: 6.7.1 (edcfbbe)
C            5.60998350961853       -0.82318862085953       -0.08372129637781
O            4.86177991120452        0.27543259058452        0.43258595126579
C            3.54060620759293       -0.00864543553171        0.71226119000147
O            2.85830626102682       -0.28321536851024       -0.49527829018003
C            1.49858753881167       -0.60868605995661       -0.29159106268916
C            0.91173544736605       -1.08122361518456       -1.63006693013309
O            0.60954776878223       -0.04661641282667       -2.52520994326093
C            0.74879521560345        0.59494629447874        0.30226865984263
O           -0.60091523927232        0.20580010646460        0.48830804877501
C           -1.55291594740743        1.23302246074232        0.39612106263187
O           -2.16910879073660        1.26125054919123       -0.86176843385688
C           -2.77045064077746        0.02894840231562       -1.23453594944697
C           -3.22517631966372        0.17201771815856       -2.68958611262416
O           -2.20553980763512        0.61519941570422       -3.54951876198479
C           -3.92288273913974       -0.31509704022392       -0.26758728652502
O           -4.47182305547437       -1.58284441314253       -0.52784605942981
C           -3.36307093947411       -0.33145670557167        1.16353324829133
O           -4.34213719499664       -0.58279444728768        2.13962934252978
C           -2.63565970533907        0.99022531442035        1.46636915739015
O           -2.05568560586537        0.97070364061521        2.74011390681020
C            1.40811809846775        1.05546193777284        1.60610795920100
O            0.84680653623726        2.29107430502829        1.97404402851339
C            2.93190811906928        1.21200946369389        1.42098205928407
O            3.55431555583034        1.48798748747592        2.64553091449281
H            5.19812142860739       -1.15152024880718       -1.03888845789320
H            5.60485632306861       -1.65430993432667        0.62724420082261
H            6.61926599863983       -0.44528001252490       -0.21522793760480
H            3.45604114727356       -0.90478687473582        1.36840646237748
H            1.42606768316225       -1.44429848511154        0.42339435137393
H            1.62259592092635       -1.78854376802736       -2.07213560233292
H           -0.02684455826995       -1.59845932105419       -1.42612062791512
H            1.43174872670497        0.38384320337439       -2.79979216700256
H            0.79280592477138        1.42480175729567       -0.41614897740329
H           -1.09440423350601        2.21474850913612        0.54124872787920
H           -2.02157795287435       -0.77223945240575       -1.16542210771670
H           -4.01887574771790        0.92119389120879       -2.75719373524475
H           -3.60389770631286       -0.80130119432926       -3.03187504654587
H           -1.34198078477003        0.28926963956453       -3.24706556191533
H           -4.68767623717750        0.47274945546032       -0.33811627711207
H           -5.08561080810834       -1.53870103855861       -1.27361965121744
H           -2.64609376720564       -1.15465448322499        1.24973607826873
H           -5.11506168352461       -0.01785513935849        1.98994909065073
H           -3.35448680885833        1.82440553461673        1.38971531699043
H           -2.64934975194399        0.47459207628925        3.32983219958057
H            1.19894235965995        0.30124310420850        2.38201420262833
H            1.33551277817392        2.63882520937232        2.73703464476168
H            3.12257685659122        2.08724781932787        0.79047043068605
H            3.56518272780903        0.69841220669886        3.20779307770869
