48
 energy: -84.731861127201 gnorm: 0.000217987449 xtb: 6.7.1 (edcfbbe)
C            5.83893574350897       -0.56566890079978       -0.00273744996056
O            4.97903209023380        0.43476667695448        0.54008133395037
C            3.68610751248803        0.00369653376077        0.77071469683267
O            3.08009136214540       -0.31894331421909       -0.45586199692207
C            1.75888162425290       -0.81020880393533       -0.32870019155545
C            1.37529067394845       -1.33517913191158       -1.70562329010798
O           -0.04537956035138       -1.93914192277543       -1.54941809632241
C            0.89264062937013        0.33778494983181        0.27253186333061
O           -0.47695578946938       -0.07343069829293        0.39676312786361
C           -1.42959710193376        0.97858606209262        0.28609958765312
O           -2.01446890860657        1.04954109041016       -0.97137182352856
C           -2.94967742507691        0.02700138587067       -1.30600182422120
C           -3.47426796462569        0.33388149920350       -2.70743523617628
O           -2.49478978377262       -0.05693798580820       -3.63912281277383
C           -4.07994935908724       -0.03723882940739       -0.27383106212974
O           -4.95131621806058       -1.07356705237780       -0.63510372508440
C           -3.47409603178838       -0.28196566157252        1.11448151644774
O           -4.53107011029535       -0.29451014028039        2.04337735630086
C           -2.45136889034494        0.81171251179786        1.43504955837023
O           -1.78716683035095        0.55184300084482        2.64798250837257
C            1.44834897334695        0.75611909386386        1.64645575570985
O            0.77225665081187        1.86518564043418        2.19583068597030
C            2.93218626379210        1.13343578549776        1.50104578331041
O            3.52234858285796        1.44624646066883        2.72864171914402
H            5.45192900310310       -0.91928463945247       -0.95941124931312
H            5.92795173636937       -1.40375871711705        0.69489006347032
H            6.79961656061535       -0.07731362862515       -0.13326219903488
H            3.69017803013581       -0.90842490339736        1.41552783441407
H            1.76202924659114       -1.63933362041501        0.40739031203488
H            1.18438029966100       -0.45621450790713       -2.35104339090468
H           -0.49536959912309       -1.45667594808464       -0.81706959463779
H            0.07698735544323       -2.88547525070239       -1.32896659272419
H            0.95415686708593        1.19049000618547       -0.41451405197772
H           -0.91402264241287        1.93865438081807        0.40420295114659
H           -2.45637680108804       -0.95149287835960       -1.35206738270534
H           -3.67716629220110        1.40935703922586       -2.77252549059097
H           -4.40109184615170       -0.23387379565725       -2.84858801668244
H           -2.81303139270754        0.12287345994091       -4.53429823756998
H           -4.60969656589979        0.92792906202695       -0.25611082901730
H           -5.59674714204954       -1.19235491741458        0.07950974945105
H           -2.97007556532806       -1.26247985531979        1.10674766235390
H           -4.17473496162624       -0.25240072682319        2.94313172533080
H           -2.97788166096254        1.76067787168711        1.57224602378895
H           -1.33832313324011       -0.30632428720659        2.57175775905185
H            1.37580642471042       -0.10659185221320        2.32701236640695
H           -0.06147731253570        1.57499391769678        2.61168415317734
H            3.01406777552257        2.04290929938845        0.89846826243170
H            3.50718349532324        0.67550818123712        3.31675833397270
