48
 energy: -84.852079745554 gnorm: 0.000682887604 xtb: 6.7.1 (edcfbbe)
C            5.76015652200207       -0.81144880153128        0.20317111061658
O            4.94249342650248        0.26599575583884        0.65378440096806
C            3.60913314868173       -0.05190292860647        0.81112755365940
O            3.04191632297894       -0.26479663411230       -0.46636045587951
C            1.66462767406535       -0.58251019661561       -0.45007656919983
C            1.25828416339867       -0.79622359853991       -1.91626223615377
O            1.46498270848484        0.34993569318373       -2.69468955306435
C            0.85316075193046        0.54759547711982        0.19891258129691
O           -0.49777831914090        0.11975885887733        0.30805408469295
C           -1.47232084876842        1.13088808465090        0.23933204878719
O           -2.05193462669063        1.19949812474424       -1.03436083951136
C           -2.73192075901486        0.00784719009799       -1.40824673305286
C           -3.23929069159161        0.19381578992333       -2.84409613208089
O           -3.54821291482989       -1.02445272541862       -3.46431188797054
C           -3.87110712003087       -0.28696413542100       -0.42049883372922
O           -4.53144187139350       -1.45814800734549       -0.83800739063308
C           -3.27212063379014       -0.43095007777420        0.99227149660657
O           -4.26536555953321       -0.62056716769139        1.97688035638475
C           -2.53037416266952        0.86741411357882        1.32238987089291
O           -1.87581770670685        0.81394566947846        2.56179047115129
C            1.40638380554871        0.84367180520818        1.60993792604811
O            0.78152564044418        1.95457762915485        2.20265857033589
C            2.91713982612194        1.11430241451757        1.54567994358062
O            3.47624299655132        1.32876850937187        2.80760752255037
H            5.43111899138959       -1.16048424983864       -0.77661566223072
H            5.72893918528378       -1.63682356394573        0.92015096290195
H            6.76432937329230       -0.40323223621724        0.14250155931791
H            3.49213935956882       -0.98438622357665        1.40745399470595
H            1.49309013325697       -1.50855983022363        0.11904785988005
H            1.82638005082586       -1.64522105917223       -2.31513323054892
H            0.19192477976209       -1.01801568944756       -1.96525086258709
H            2.40205277376884        0.58834387375008       -2.63838983740324
H            0.92053323131565        1.44463344384778       -0.42705773970303
H           -1.02275270841011        2.11778602747338        0.39686768682491
H           -2.03157912887003       -0.83971469953805       -1.39282391114065
H           -2.44241355028261        0.65675652208910       -3.43000166429194
H           -4.10715875590537        0.86648018252771       -2.83890198759367
H           -4.14476530640539       -1.52109077513105       -2.87860194299028
H           -4.56178414738874        0.56892572293565       -0.41900298618817
H           -5.36746764068138       -1.54349975549299       -0.35552669368491
H           -2.54771485891538       -1.25463979614695        0.99449509712934
H           -4.50736196033979       -1.55546562011960        2.02583340326853
H           -3.25246003405217        1.69732592585430        1.30433223753584
H           -2.52453012640767        0.55683352465995        3.23775469903988
H            1.23322818902742       -0.05538502922639        2.22233271498748
H           -0.09835507383814        1.68907824317984        2.52518719001219
H            3.10299562490330        2.03485763360390        0.98496272826685
H            3.25006583762969        0.60055658059613        3.40619614942806
