48
 energy: -84.631177473884 gnorm: 0.000522058390 xtb: 6.7.1 (edcfbbe)
C            5.40646539998816       -1.26403086822835        0.45856566926239
O            4.76330493349611       -0.04674553544801        0.82345647972061
C            3.37718047660762       -0.10272942571423        0.85287185563279
O            2.87431525114852       -0.33911115109380       -0.42986920217151
C            1.45037428731338       -0.47125910981510       -0.47570793728744
C            1.03397030469636       -0.50711845093000       -1.93151323360559
O            1.28067166794305       -2.02529413375361       -2.40030340086174
C            0.71947749195245        0.72061158042083        0.16844607456727
O           -0.60043139124765        0.26693418826277        0.44138185774188
C           -1.61070232641455        1.23736519414619        0.40805143540568
O           -2.30833277285242        1.20611839441307       -0.80248244023353
C           -2.94367872732259       -0.05060172772020       -1.08940071128301
C           -3.40491022167830       -0.01928660419621       -2.54448946705894
O           -3.96542710376849        1.38841488222674       -2.81212740624331
C           -4.01705141233385       -0.31127842716406        0.01044935115103
O           -4.76821320852440       -1.47550711767675       -0.22996693229911
C           -3.30781868846664       -0.34104478128813        1.36877807941338
O           -4.16101826601398       -0.61979316189325        2.45768334496704
C           -2.58363933601169        0.99673471525603        1.57975370527136
O           -1.88205983945224        1.01972399963896        2.79225015256359
C            1.36010213863128        1.24099673378334        1.46189934807079
O            0.86923509487359        2.53937348573033        1.69814714840780
C            2.88613549019158        1.25377808912476        1.36908896342309
O            3.39339666657023        1.55031898196499        2.64473196814211
H            5.18204497419607       -1.51565339980358       -0.57747759023796
H            5.08347899884057       -2.07494543377096        1.11759558592313
H            6.46882402732678       -1.07511685348611        0.58181389143711
H            3.03280759788926       -0.90985603265944        1.54121042352338
H            1.18683660516469       -1.37085150734861        0.12855339101874
H           -0.06944312978579       -0.48132897304363       -1.91986445439162
H            2.24234488481542       -2.05876160891453       -2.57028459736568
H            0.82280418661864       -2.07248481942356       -3.26513173358892
H            0.69414031739121        1.54410220912765       -0.55769422330553
H           -1.18259820306341        2.24244985951318        0.48911172653813
H           -2.20381640041691       -0.86162094637531       -0.99680389824307
H           -4.60797011324500        1.70577422302781       -2.14286351784952
H           -4.30369199099405       -0.66354037033105       -2.60257661558652
H           -3.16549402899862        1.95111081480388       -2.77621640002856
H           -4.75466900107006        0.50228866633234        0.01669957033550
H           -4.17521259747152       -2.23537097642788       -0.30842304861840
H           -2.55187298066687       -1.13629264134712        1.37418145997345
H           -5.01590381351212       -0.18453057352666        2.32607925166384
H           -3.32424593172100        1.81624691561985        1.56333079911797
H           -2.41191561645897        0.53295820603229        3.44676361773884
H            1.06331055579573        0.57248170055994        2.28580387012576
H            1.30194446668906        2.88450650202631        2.49468907633160
H            3.19349084228555        2.01349775410396        0.63474182656491
H            4.36134441292229        1.50005152777426        2.61527389406307
