48
 energy: -84.745637040577 gnorm: 0.000361105798 xtb: 6.7.1 (edcfbbe)
C            5.69899654123996       -0.83205986093619       -0.06344065320606
O            4.95348354866965        0.24771725421259        0.49576171780047
C            3.61691014429426       -0.04153070324948        0.70497271033288
O            2.99707156670287       -0.21869659433399       -0.54116809022204
C            1.61168244183573       -0.54106435954076       -0.49443965421793
C            1.25187435342120       -0.80807176776342       -1.95119186883950
O           -0.07835078596156       -1.67427960863712       -1.93055251020741
C            0.85706755863586        0.61912940032987        0.21131969073915
O           -0.49863625154553        0.23351181761693        0.40956276941680
C           -1.44334411532249        1.26895799850101        0.39196356197893
O           -2.08176677698055        1.30775246506008       -0.85625856474425
C           -2.74376585771135        0.07042247799993       -1.13118543879665
C           -3.15909606389660        0.05983507846566       -2.59814119886541
O           -2.08740951779165       -0.46487439881003       -3.35744510726410
C           -3.90504264344451       -0.12158879232675       -0.14253494105366
O           -4.66191189898920       -1.27233893772778       -0.40584859105287
C           -3.31150846394193       -0.16466072265437        1.27661702420568
O           -4.31302511205464       -0.21426873443517        2.26504244201611
C           -2.46858516573411        1.08897022157002        1.52234312012376
O           -1.76798839235041        1.03630251688104        2.73748486587071
C            1.48066373389906        0.88932648348755        1.59270731318251
O            0.92708210159203        2.01554658294342        2.24343289652463
C            2.98863444399803        1.12271434810889        1.47860483363247
O            3.58308801931462        1.18731610824109        2.74613532995867
H            5.28323872177150       -1.11543365366693       -1.03153240859131
H            5.68294936082297       -1.68980878231162        0.61546095870170
H            6.71074523064887       -0.45384089386547       -0.17336774976770
H            3.50707141600818       -0.96842800547338        1.31263348098425
H            1.46533306465810       -1.44760726736938        0.11729141325433
H            0.90681040358466        0.15369435241837       -2.37575421756169
H           -0.72631002642473       -1.24098422752900       -2.54780434003134
H            0.18822600290837       -2.52665806020368       -2.33389008257474
H            0.91887605259185        1.52072516716248       -0.41049423914460
H           -0.95722729835174        2.24602609375502        0.49893032595513
H           -2.02708096396321       -0.74314014014423       -0.95861658460795
H           -3.38931650282066        1.08646736234943       -2.89548995277553
H           -4.04992462295069       -0.56907877951820       -2.70876284330316
H           -2.26608185895602       -0.35297431359998       -4.30192331228033
H           -4.60154136423107        0.72041448607292       -0.21877585943365
H           -4.08784763913734       -2.05423262398188       -0.39358981534300
H           -2.64937770385208       -1.04227335811050        1.36532229640064
H           -5.02201395009944       -0.80101006143070        1.95914709427201
H           -3.13766883656521        1.96313188080256        1.50358274416173
H           -2.39830009738412        0.81749205424561        3.44280286696401
H            1.31930560808660       -0.00945151184390        2.20739774057355
H            0.04615744594870        1.78056562607701        2.58611690357565
H            3.17635093982604        2.04491735319888        0.90944222375207
H            3.13347421528334        1.88640501559160        3.24846682219181
