48
 energy: -84.850402178994 gnorm: 0.000317801402 xtb: 6.7.1 (edcfbbe)
C            5.57835706798683       -1.06949257692782        0.29505789410071
O            4.86739095603773        0.05876517992170        0.79897770091885
C            3.49972663716162       -0.11387599233448        0.87319628850824
O            2.97918506707871       -0.27665210829590       -0.42868811034890
C            1.58511296060187       -0.48840557377307       -0.49073378869152
C            1.21783981249549       -0.54157498977481       -1.97788778888683
O            1.46000783033407        0.72295393649597       -2.54559788854435
C            0.78206045399867        0.61728974818151        0.21349433583875
O           -0.54557558891935        0.13968132367651        0.37491214318842
C           -1.55702717550310        1.11760712188533        0.36401039444306
O           -2.19127685461413        1.17484796132054       -0.88182394191021
C           -2.83251060648201       -0.05100956252335       -1.22614427465732
C           -3.37786916125674        0.07642005750460       -2.64601749451680
O           -2.36314812329938       -0.28905811245020       -3.55396299720328
C           -3.94087111268403       -0.38922167391339       -0.20670087262146
O           -4.62918716573701       -1.55538592731169       -0.56320549910225
C           -3.31548096533540       -0.47448695286560        1.19304540390420
O           -4.33188143797219       -0.70256152616107        2.13535084153720
C           -2.55723996616126        0.82442460145455        1.49334571006965
O           -1.91421247218458        0.68397531482373        2.73410515304206
C            1.36214382959032        0.91141215400957        1.60479798406903
O            0.71436895595463        2.03249405905185        2.16334972605454
C            2.87835153909798        1.12659693726581        1.52917058312721
O            3.39794649496108        1.42817631586072        2.79380096401272
H            5.27995534122959       -1.28007199206590       -0.73253608221572
H            5.39145311155792       -1.94616439811957        0.92229707052549
H            6.62657283967159       -0.79012289719863        0.33762525290417
H            3.24932024622626       -1.02199790657759        1.47028735658542
H            1.32880629816217       -1.44710515265627       -0.01258578472564
H            1.84122157268042       -1.30695567523022       -2.45359564550424
H            0.15923791643983       -0.81189301426592       -2.07067227273682
H            1.26829764105075        0.68405708197211       -3.49299894178962
H            0.80210750083528        1.52332724937993       -0.40101363419841
H           -1.12438665079837        2.11522793760294        0.51033645698611
H           -2.08402004302468       -0.85676565869453       -1.21545161897329
H           -3.68998273511610        1.11533847392841       -2.79731834448767
H           -4.24282002212160       -0.59132515192395       -2.74030127524901
H           -2.69285196179949       -0.17555908018373       -4.45688225416818
H           -4.69294089065376        0.40725308142745       -0.20890044250182
H           -4.07866288768167       -2.33195273220914       -0.38374677517934
H           -2.58318232558673       -1.29873094072247        1.21336203889502
H           -3.94868476889467       -0.61808437037956        3.02167322965065
H           -3.28159236666519        1.65425375251557        1.52542638983593
H           -1.19340695579752        1.33297520149775        2.79652844417483
H            1.15525557384297        0.03102558535195        2.23779654058091
H            1.33194248309596        2.44703248185258        2.79082407961335
H            3.10285212349377        1.98946337343108        0.89363867940056
H            3.46614298449018        0.62824603388650        3.33606209649753
