48
 energy: -84.854940919726 gnorm: 0.000911789382 xtb: 6.7.1 (edcfbbe)
C            5.62284671851076       -0.93849884874064        0.24537063772857
O            4.85669573833503        0.19193909711769        0.65529734304615
C            3.50077365340845       -0.04501109513646        0.78284781342279
O            2.94243820771996       -0.25023694291889       -0.49728838750300
C            1.54941541049812       -0.49913008506565       -0.49755363295291
C            1.14371762617084       -0.60750117837446       -1.97778828714712
O            1.47588455198969        0.55201542023266       -2.69124518017401
C            0.75788145571004        0.62277570317783        0.19426635065878
O           -0.56842312445134        0.15580903349479        0.37863918312064
C           -1.57366903492770        1.14090590061760        0.36034542951681
O           -2.21699298736338        1.17863456571754       -0.88102360867736
C           -2.87988491843647       -0.04407183256539       -1.19414409674537
C           -3.40581204958152        0.05324380484307       -2.62433250082434
O           -2.40376008013038       -0.41646397751675       -3.49691110182867
C           -3.99305013308764       -0.30673438861722       -0.16026235380628
O           -4.76284971696941       -1.43319496938169       -0.47714077577535
C           -3.34702010673316       -0.41067652863580        1.23655365939222
O           -4.28428207434688       -0.71157504304881        2.23317635473468
C           -2.56185033112487        0.88164264258831        1.51366081744214
O           -1.89253729813671        0.77749735315450        2.74124666925401
C            1.36492570995134        0.94876593582659        1.56822360301001
O            0.70619890911675        2.06681941340586        2.11758567045173
C            2.86891926685304        1.18946653361216        1.44090560683946
O            3.37575515566530        1.42032173772989        2.72729680209260
H            5.29168314396190       -1.29365965952282       -0.73082561008747
H            5.53213369683208       -1.74203781693935        0.98117945759142
H            6.64875111759664       -0.58725403486648        0.19271866153669
H            3.31027813269715       -0.94005779862302        1.41176867300832
H            1.32956847943632       -1.44107722065320        0.02521652624900
H            1.63238569781531       -1.48587852216782       -2.41429476948280
H            0.06123946611873       -0.71934123984190       -2.05552197761198
H            2.43594873872099        0.67185062013868       -2.64259011981081
H            0.76654711051765        1.51670804875323       -0.44106150942583
H           -1.13297350127926        2.13816780470676        0.48303844730485
H           -2.15136829421250       -0.86631854183661       -1.15434116431581
H           -3.64956913223766        1.10176180475901       -2.82458370049593
H           -4.31005197616825       -0.56335976926446       -2.70376287205064
H           -2.68086104613340       -0.26925149382278       -4.41180806853391
H           -4.69166064671208        0.53870737348178       -0.17991947099472
H           -4.26044195860856       -2.23936223764802       -0.28991338443589
H           -2.63572541309618       -1.24438030674369        1.25372796002128
H           -4.91364319872259        0.01764019334155        2.33100947245583
H           -3.26792279523665        1.72978124282289        1.53698605185846
H           -1.11819613290703        1.36690353218313        2.73122786548678
H            1.20668978360669        0.07720308165021        2.22359463224292
H            1.24846625070544        2.39066482296430        2.85620824305743
H            3.05272671909360        2.05258549908761        0.78426800915854
H            4.33815721182432        1.52060536003799        2.67809367982355
