48
 energy: -84.856591411145 gnorm: 0.000643360416 xtb: 6.7.1 (edcfbbe)
C            5.66968518972397       -0.94214938002028        0.31435140024249
O            4.90232534448258        0.16701293256087        0.77795916901181
C            3.54779438876319       -0.08483873788290        0.89387869266466
O            3.00150204671029       -0.31278507430913       -0.38637762590882
C            1.61990543035748       -0.60354290440163       -0.37795071047723
C            1.21026579549706       -0.86342353853993       -1.83591097475663
O            1.68635213462132       -2.08283200512602       -2.33205040662293
C            0.81524633927149        0.55615489775079        0.23512264010543
O           -0.53036269529482        0.13762554427504        0.38445246557123
C           -1.51131592357834        1.14421399146188        0.29140543190767
O           -2.11549991578895        1.15932547763092       -0.96929916516097
C           -2.83175623222324       -0.03657431606901       -1.28148457638709
C           -3.45134920817095        0.15340048957498       -2.66972138475325
O           -2.48373173835422        0.31574896021282       -3.67213086356100
C           -3.90671458177383       -0.32739220713941       -0.22907797350653
O           -4.52915982108271       -1.54393630891440       -0.54698036140692
C           -3.26659312475753       -0.38300089682725        1.17170293851244
O           -4.23530740971427       -0.69312761790295        2.14002712030265
C           -2.53360359080250        0.93808935557489        1.42252268769403
O           -1.91603987747004        0.92772344988844        2.68025430471262
C            1.38619130701043        0.91226556789805        1.61819002283322
O            0.71433116131689        2.04545117847831        2.12020009852087
C            2.89390793278322        1.15142374902888        1.52809743775708
O            3.36310434805669        1.39523675144930        2.82638208882385
H            5.33199593984577       -1.25178824883616       -0.67540084893350
H            5.58246888648277       -1.77825257396107        1.01396650426180
H            6.69490987802515       -0.58706571129176        0.27347076078453
H            3.36395844724488       -0.97435908820301        1.53479071567866
H            1.43222391907581       -1.50076297542854        0.23359979058566
H            1.66729434796510       -0.09168969646290       -2.45805441992303
H            0.11959349046859       -0.79697360294257       -1.91407702674097
H            1.23685963764678       -2.81854557386233       -1.89165712734278
H            0.87590074918683        1.43227486800894       -0.42132787420062
H           -1.05226042893987        2.13580997979964        0.39474259425552
H           -2.13368435079827       -0.88360394599726       -1.30604335880967
H           -4.12841436461996        1.01536449190981       -2.63659874265543
H           -4.01859836604044       -0.74459349995589       -2.91819404289295
H           -1.99396543287170        1.13103413172553       -3.49321998851086
H           -4.64907216304770        0.48961189252908       -0.24681342064134
H           -4.96724540379965       -1.87452912250281        0.25505803567036
H           -2.53739370453636       -1.19981966436946        1.20483942791978
H           -4.69026426037394        0.11117534845359        2.42808083031783
H           -3.26106118669119        1.76751846564075        1.36829719645204
H           -1.08130441936637        1.42873562097997        2.63551775184050
H            1.20921183454823        0.05880071034109        2.29149011932366
H            1.22880475354637        2.37960994637351        2.87407381036105
H            3.09515714758860        2.00809417750338        0.86794534771237
H            4.32733375547100        1.48788271482693        2.80531053723377
