48
 energy: -84.847722297877 gnorm: 0.000976648402 xtb: 6.7.1 (edcfbbe)
C            5.55656407840541       -1.22224591372741        0.42231913656790
O            4.89526729709617       -0.00359890659126        0.75454356764083
C            3.51711007278088       -0.09609314594909        0.82067042892855
O            3.00296197107808       -0.28514686731729       -0.47792769538428
C            1.60073318888617       -0.45154233228599       -0.51365586068816
C            1.22676130451273       -0.54198033517952       -2.00291842188925
O            1.68248662470657        0.57277903660398       -2.71826833090872
C            0.83596192729106        0.70610367370166        0.15405540315992
O           -0.48044386147760        0.20654127831850        0.37982850257735
C           -1.53136376663257        1.14609466732197        0.35895001260955
O           -2.19610533274555        1.13287936913999       -0.87457117369739
C           -2.80219159635192       -0.11073387102827       -1.21110938150345
C           -3.45740126171774        0.05220643609038       -2.59250652181830
O           -2.56934039268526       -0.13978621604675       -3.66297968789084
C           -3.83856016902689       -0.50535666891936       -0.14654786857558
O           -4.46085115705380       -1.73211420173663       -0.42972380358301
C           -3.17233643484427       -0.53567587779780        1.23751162773464
O           -4.11280280527517       -0.81185003577665        2.24587035552355
C           -2.51099323841918        0.82163184908167        1.51422976891191
O           -1.88271986119951        0.87801701693571        2.75969600667415
C            1.46091368789100        1.17571918021687        1.48624788077374
O            0.91426754196852        2.40440464508764        1.88862488633624
C            2.99038778602762        1.22306886799276        1.40693218231575
O            3.49053435874429        1.44219264952714        2.69648664919385
H            5.24436181093451       -1.57257807631784       -0.56214741033439
H            5.33884383329345       -1.98653322410741        1.17352020709151
H            6.61605675049021       -0.98454935438579        0.42108965798087
H            3.20501408795119       -0.94345128607241        1.46614832704237
H            1.31990456713646       -1.37954990106667        0.00631636311156
H            1.64047961635304       -1.46781850453655       -2.41955894901239
H            0.14119710622342       -0.54504628490403       -2.10287372318277
H            2.64584332156158        0.61752222704079       -2.62836638282555
H            0.79912095393441        1.55175022258769       -0.54551371579119
H           -1.15193634978566        2.16358205740563        0.48526479498048
H           -2.02155584597625       -0.88666885268501       -1.25346918262339
H           -3.81148657709981        1.08179850434264       -2.67113616549143
H           -4.31084578609312       -0.63127377148704       -2.65671189517494
H           -2.40791280252834       -1.08552930390700       -3.79127853259836
H           -4.64236234661184        0.23861327664217       -0.13555357819222
H           -3.79567827303700       -2.43621680028281       -0.47169222101538
H           -2.38335901102100       -1.30903494655684        1.24259896335545
H           -4.74976650026810       -1.45901478399438        1.90137821423646
H           -3.28370675051431        1.59561580441593        1.53974420967999
H           -1.21417146107775        0.17986925144765        2.80974433383408
H            1.18476483148082        0.46199489559663        2.27119668715625
H            1.41622870319402        3.13691273277276        1.50224842904281
H            3.30074462621552        2.02821397941432        0.72200059855250
H            4.45991953204610        1.43631183376678        2.66643231968430
