48
 energy: -84.746034538198 gnorm: 0.000380536758 xtb: 6.7.1 (edcfbbe)
C            5.56282021269665       -1.10724809495583        0.37261149146036
O            4.86442414234114        0.07711844167607        0.75083953035595
C            3.49131397319166       -0.06540402847161        0.82575924205398
O            2.96868219462707       -0.23852806984324       -0.47196638558888
C            1.56857634142240       -0.42911354157573       -0.51099364200477
C            1.19243237064564       -0.48198362130188       -2.00183683874187
O            1.62651737320270        0.66162591607060       -2.68428366331990
C            0.78459834917541        0.69251021953283        0.19398219637461
O           -0.53615574353949        0.19268064700389        0.36666525052856
C           -1.57911810278421        1.14846748299406        0.36489197123898
O           -2.22274270088711        1.21404960541830       -0.87043621038234
C           -2.83374319919248       -0.00570485702470       -1.29289007438831
C           -3.32596410518074        0.20105537785943       -2.71769253755849
O           -3.69198687777598       -1.23964888721435       -3.17600183126920
C           -3.92264076558486       -0.39115808412697       -0.25992613365727
O           -4.55510089430046       -1.58440616606538       -0.67054772977991
C           -3.27678910505362       -0.54765090151485        1.11388810309555
O           -4.27673013484058       -0.88298801195898        2.05242219718251
C           -2.56877843310014        0.75946102976666        1.48602649408836
O           -1.94230601503290        0.64708703791917        2.73627487322042
C            1.39403532068440        1.07445268524947        1.55100732610621
O            0.80378225689432        2.27383200753202        1.98005908860994
C            2.91657034774882        1.21193480781554        1.45099087429569
O            3.40589474457318        1.42517650646560        2.74804285053831
H            5.25009783495951       -1.43741515098193       -0.61838563091847
H            5.37954861776034       -1.90135332963561        1.10188215255713
H            6.61352667622514       -0.83352964173979        0.36718679944754
H            3.21774740305870       -0.94259445924097        1.45047038551691
H            1.30445559640260       -1.37863793003796       -0.02109223731590
H            1.62587554663019       -1.38671416694526       -2.44405238505289
H            0.10649216386595       -0.50823999485629       -2.10125042220362
H            2.58942919625807        0.72211866606719       -2.59433382275865
H            0.76955461782819        1.58086835320491       -0.44949831649697
H           -1.18157603827060        2.15131245796871        0.55178884050111
H           -2.07732792423060       -0.80802478127702       -1.29064086821020
H           -4.30783476803464        0.72226547437451       -2.63895960140374
H           -4.29551443389100       -1.66835402435238       -2.51975029753790
H           -4.12313951463026       -1.14275628175214       -4.04679468839714
H           -4.66258982824641        0.42488391628158       -0.20545616685587
H           -5.09489669948377       -1.91194312258730        0.06423335664918
H           -2.52640115122935       -1.35436927274420        1.06254598577278
H           -3.93622090448778       -0.70359477657100        2.94172341999288
H           -3.31319207460226        1.55663488834711        1.58281471856056
H           -1.13239170058913        0.12874100751415        2.61772260859045
H            1.18257155397786        0.26846637189421        2.27318089522107
H            1.26264791581660        2.57223920311313        2.78162079546751
H            3.16509767017386        2.05404124866384        0.78963800915676
H            4.37277969369724        1.48425283024430        2.71628607278315
