48
 energy: -84.734052276674 gnorm: 0.000598053081 xtb: 6.7.1 (edcfbbe)
C            5.80443986705300       -0.57328207923723       -0.03106192173191
O            4.95166670819802        0.43523230667382        0.50805816672293
C            3.66428238594126        0.00589663729098        0.77145916815398
O            3.03731101985867       -0.34055475552799       -0.43878722935194
C            1.71199397074156       -0.81000270092024       -0.27591733406201
C            1.29199598464713       -1.39340936157183       -1.61689073078992
O           -0.11718430202116       -2.01404220189247       -1.37738007742832
C            0.87152593268827        0.37237310027774        0.29236182207680
O           -0.50579897911879       -0.00594104346154        0.41089768632094
C           -1.44275998324553        1.04637982604339        0.27214499344744
O           -2.01982171748555        1.10016492449573       -0.99395009843331
C           -2.90379063397742        0.03641786760420       -1.35734381743993
C           -3.60584731307469        0.47833847319152       -2.64867027746762
O           -2.72463301290057        0.60163954176332       -3.73145898057463
C           -3.94458084883511       -0.27863281287372       -0.27703028181189
O           -4.57432361050219       -1.47557263124543       -0.64578338197422
C           -3.29143372273944       -0.39648423498606        1.10837418988255
O           -4.32813514319359       -0.59237836970710        2.04407196594604
C           -2.50658374035268        0.89655752548179        1.37278797383255
O           -1.85252866880989        0.89266371146903        2.61897996738384
C            1.43823975279559        0.79397545413328        1.65889847223639
O            0.78085447538641        1.91408393299034        2.20358586613888
C            2.92562194720836        1.14826662336200        1.49952779140747
O            3.53265703299025        1.46297591286618        2.71850833665094
H            5.40044361629405       -0.94735562033497       -0.97277012241310
H            5.90991529517464       -1.39679510938527        0.68130622607697
H            6.76071189640413       -0.08470031126608       -0.18994177270507
H            3.68191534842421       -0.89441045292201        1.43157038249403
H            1.71551071949636       -1.60677075940843        0.49472798648405
H            1.06062595905551       -0.54402476292367       -2.28767242620980
H           -0.52532136356135       -1.53171317482437       -0.62094141660697
H            0.02839632447567       -2.95855701436958       -1.16074162536711
H            0.96035188310290        1.21198037477272       -0.40873048338127
H           -0.93308623424618        2.01018722349338        0.38561247551971
H           -2.33280557198126       -0.87486849351860       -1.57223913900219
H           -4.12344738284231        1.42738280946936       -2.45921737147895
H           -4.33218425883157       -0.28712404846933       -2.92525771691544
H           -2.05326926181118        1.26092536186073       -3.50896028660240
H           -4.67684069992532        0.54280360909046       -0.22726109654410
H           -5.22665681813886       -1.70258691901244        0.03538407295023
H           -2.59452941984454       -1.24201910365082        1.11466776150032
H           -3.98502360256470       -1.02776823978011        2.83650199475837
H           -3.18988830477608        1.75149415782028        1.29135351156516
H           -2.50264666416055        1.05670840899694        3.31903761039047
H            1.34617921381966       -0.06277209493462        2.34571285902203
H           -0.09109995607401        1.63353610076380        2.54076638086746
H            3.01496581162168        2.05228396635804        0.88943017561590
H            3.47727110164471        0.70992744370133        3.32668288580579
