48
 energy: -84.838408277916 gnorm: 0.000368411788 xtb: 6.7.1 (edcfbbe)
C            5.42698078388934       -0.73122819116856       -0.18862004303738
O            4.71267976869047        0.31211419400271        0.46846118950681
C            3.37110442714344        0.04473097783645        0.66839374046880
O            2.71594499489580        0.06471998059226       -0.57902683576057
C            1.33474551199363       -0.23172185435217       -0.48848411515749
C            0.77256360588420       -0.34653108852973       -1.89647632668549
O           -1.69958446044629       -2.76559117648200       -1.21769773619427
C            0.60754986746527        0.84903353033903        0.33474802678603
O           -0.73055792585187        0.39871999788369        0.48537300014573
C           -1.73301443237311        1.36550298835520        0.60332161835301
O           -2.38960838517180        1.56427542116194       -0.62552177570724
C           -3.07506852556880        0.46297751500241       -1.13441448610549
C           -2.96626838165766        0.25110894316688       -2.44619426944117
O           -3.69865239819079       -0.67698141561925       -3.11980994999858
C           -3.96183316154242       -0.31039606411129       -0.18527199957637
O           -4.26159318413071       -1.60878885429881       -0.64591414441431
C           -3.29142370798661       -0.46673476871572        1.18908260331028
O           -4.20389546026837       -0.91884867451039        2.16089771857184
C           -2.74899342545866        0.88648577830720        1.65295038583649
O           -2.12339159209815        0.80614932056033        2.90018572491530
C            1.27762156952879        1.06473339994600        1.70223060571487
O            0.80559774245168        2.21816941248513        2.35928378604116
C            2.81277340063296        1.12719598408034        1.60004021605283
O            3.39995151210891        0.95257789974107        2.86167896977955
H            5.01319371934997       -0.90887392732702       -1.18264305642217
H            5.38223582497285       -1.65024335591447        0.40264437669589
H            6.45111813969860       -0.37746736281661       -0.25951656070440
H            3.22884480789715       -0.94842051196495        1.14464857388904
H            1.20154086192949       -1.18921693202907        0.03951372890581
H            0.79162782227858        0.62165211219345       -2.38760708056317
H            1.37724751777797       -1.04623497047652       -2.46378954926045
H           -1.78801099071564       -3.67257660622098       -1.52917660853260
H            0.62260506586627        1.79279952913854       -0.23017531432134
H           -1.33187391612418        2.34161955709845        0.88947856920578
H           -0.24610580307910       -0.71632885399524       -1.83282148890796
H           -2.29677850124466        0.88076686594214       -3.01263246642152
H           -2.59449002127144       -2.47229198425725       -0.98108512368718
H           -3.42139413286320       -0.72197311977090       -4.04645837298894
H           -4.89899729106576        0.25507545576254       -0.03170695068600
H           -4.56991344752384       -1.54850532925291       -1.56624824326677
H           -2.44507990004752       -1.16140050551876        1.09319798368151
H           -4.57056640555947       -1.76682485622045        1.87075806719185
H           -3.57740479700922        1.61415742212551        1.68360400231457
H           -2.70395629141964        0.29599867999204        3.48819557926592
H            0.99294268586057        0.23028062581615        2.35237749355749
H            1.07757463043482        3.00744140566524        1.86551999200868
H            3.11334278656817        2.09573415723020        1.16709481311220
H            2.95957349015046        1.54539811411476        3.49252342817148
