48
 energy: -84.739177397121 gnorm: 0.000656698004 xtb: 6.7.1 (edcfbbe)
C            5.68072358089241       -0.96066025156428        0.24067265560007
O            4.93343730953311        0.17063932377762        0.68375722875858
C            3.58263027855830       -0.06561903469918        0.84046032007935
O            3.01247870123248       -0.36489911480262       -0.41605714441051
C            1.63352455408225       -0.66730518702145       -0.37719085566009
C            1.20730702007185       -1.00248266359361       -1.81590171344926
O            1.67863365547632       -2.24841983726772       -2.25019794923537
C            0.82644554437292        0.51636381139019        0.18166990451861
O           -0.51272228601996        0.09637665292419        0.37429725173359
C           -1.49633307338485        1.09855072157533        0.23615013098697
O           -2.11274860986556        1.04438572242592       -1.00823574404300
C           -2.80869138271513       -0.19285703327974       -1.25945812443423
C           -3.16531645249169       -0.22139595497378       -2.73206175909960
O           -4.01554910252249        1.02949764942517       -3.02300656498269
C           -3.95207854410690       -0.32878157878432       -0.20557518012166
O           -4.74574601259671       -1.46431180126154       -0.44591127534816
C           -3.33625176299154       -0.32232530119221        1.19978395216872
O           -4.36444160978856       -0.40306353930314        2.15826200700019
C           -2.51156004131253        0.95752548086264        1.38336345139741
O           -1.87895913096185        0.90657521815375        2.63684840993181
C            1.41472442380406        0.95175522836089        1.53381757436992
O            0.75193116420665        2.10890584836243        1.99316965449597
C            2.92562862233756        1.19706706228450        1.41675149085911
O            3.45253228980506        1.60535405163154        2.64769648063338
H            5.31867717040388       -1.29998629293507       -0.73073987540049
H            5.60385134821211       -1.77328115832342        0.96904862173807
H            6.70706391962112       -0.61497957770225        0.16629411204184
H            3.40925466921608       -0.92788610051081        1.52581705172051
H            1.46169100659170       -1.53473320516420        0.28088677570568
H            1.65911153780132       -0.26399984952759       -2.48068574476752
H            0.11666972059023       -0.93522576907597       -1.88970779643873
H            1.19744992156109       -2.95896735037353       -1.80315482040947
H            0.86905758903518        1.35218913859714       -0.52623776536371
H           -1.03146966645244        2.09198357203588        0.28848285392085
H           -2.11846698724207       -1.03306533059302       -1.09014005899402
H           -4.81811575413932        1.11208692903984       -2.46343143988302
H           -3.87756763312354       -1.05438735518488       -2.87260156042714
H           -3.39824672540810        1.76544253070948       -2.83470120811841
H           -4.64540392139024        0.51823859534258       -0.26573692602443
H           -4.22806358928086       -2.26351178044329       -0.27956948093472
H           -2.65252011794218       -1.18157276424884        1.30232022342837
H           -3.97169369369276       -0.27536664527124        3.03476688708149
H           -3.19590576758980        1.82156617014959        1.33912070973933
H           -1.10629937394646        1.49719813064705        2.62811031113468
H            1.23582123633646        0.13176135721074        2.25030123092814
H            1.36095558039716        2.58202212474186        2.58684178355521
H            3.11577521054185        2.01966101496706        0.71923963630544
H            3.56145619426902        0.84838915273682        3.24196031987225
