48
 energy: -84.706956448831 gnorm: 0.000338096040 xtb: 6.7.1 (edcfbbe)
C            5.76498386139468       -0.88644013048745        0.29177048658304
O            4.97536663567913        0.21937294103752        0.72377339654720
C            3.63332511609665       -0.05862032021868        0.87840692803753
O            3.06323750282917       -0.26921240777128       -0.39844395311331
C            1.68008538183611       -0.55719073087562       -0.37923057273052
C            1.27014666506819       -0.78248948898273       -1.84254285562261
O            1.46767493637413        0.35742113663275       -2.63240262828868
C            0.89334077329705        0.59710184689176        0.25774941506544
O           -0.46685842866661        0.20071162913579        0.37643895598339
C           -1.41951006856542        1.23239568857164        0.30007094390017
O           -2.01251050975509        1.31266538414830       -0.96011199359582
C           -2.71892203071500        0.15586393549987       -1.39159657695855
C           -3.82154697625727        0.35785997073787       -2.27401191551792
O           -5.98833243386094       -1.84188806725063       -3.02173566985847
C           -3.80406381046850       -0.38700618933100       -0.35149523684014
O           -4.23699034763606       -1.67675406999179       -0.61597992865119
C           -3.17438024170081       -0.34279881641482        1.06854992917671
O           -4.16848636413441       -0.54347084004419        2.03160304438030
C           -2.49285196178196        0.99130042398653        1.36970045457106
O           -1.86467513183048        0.98447953232182        2.62129253890329
C            1.45352457152837        0.90192138073008        1.66400989585331
O            0.85527500152898        2.03879087464773        2.23578235691706
C            2.97070251890380        1.13494460607514        1.59572157520677
O            3.53457795337944        1.35640106738132        2.85373151790104
H            5.44067501427175       -1.23007826038994       -0.69154788277125
H            5.69619715910451       -1.70631600406802        1.01241169708949
H            6.78265760089778       -0.51110590999290        0.24513018389225
H            3.48729390284767       -0.98088506174236        1.48428301651626
H            1.49039604149878       -1.47249551389288        0.20194476733165
H            1.83860115604538       -1.63353570507672       -2.23552675452177
H            0.20423399502434       -1.00686057160625       -1.88563641026938
H            2.40828616250310        0.58660075887668       -2.60653907745126
H            0.97782763582760        1.48524115264005       -0.37885139587585
H           -0.95139449646973        2.21080142460056        0.45737087627927
H           -2.02897755733334       -0.66328745192499       -1.60287837624727
H           -4.11050946278301        1.41868707594662       -2.26618330556760
H           -5.43640853919992       -1.13228940374475       -3.37588130076232
H           -5.67328484952030       -1.96662217132130       -2.11716502691828
H           -4.70159525894330        0.24778956715211       -0.33715451198804
H           -3.49026841522514       -2.26745402180626       -0.80267889405829
H           -2.40631420914877       -1.12973027213280        1.11965478711610
H           -4.63875987255014       -1.37369733735106        1.85625054513447
H           -3.23496910950938        1.80107145225405        1.30822600520714
H           -2.51384912229714        0.71479362161651        3.29180219529727
H            1.25910330005792        0.01839575625094        2.29187056346068
H           -0.02103316049231        1.79958819384945        2.58587645267807
H            3.17831593776340        2.04207808762521        1.02071054627037
H            3.30654554328842        0.63494624063016        3.45987020071831
