48
 energy: -84.851017524966 gnorm: 0.000652722708 xtb: 6.7.1 (edcfbbe)
C            5.67395977572625       -0.95477372698309        0.10446828332084
O            4.92808167480760        0.16073549393212        0.58736900556791
C            3.58834807473668       -0.09849628953933        0.79443372923347
O            2.97574590148681       -0.35592803572192       -0.45154107755440
C            1.59828746814888       -0.65276766436545       -0.37507679749359
C            1.13368554982464       -0.96212838366543       -1.80779752847866
O            1.56542251280368       -2.21242251896298       -2.26873289654573
C            0.82645302634567        0.52946519034008        0.23101664726464
O           -0.52391383525099        0.13496803061886        0.43148726606186
C           -1.48796515120887        1.15699074492113        0.33676283790043
O           -2.12215458116287        1.13899078465592       -0.90952731389548
C           -2.83578606700278       -0.07003677928128       -1.16359890141758
C           -3.38698225353762        0.00487876300667       -2.58656159617887
O           -2.40544077606505       -0.49591708278984       -3.46552711721974
C           -3.93587025271649       -0.27413254702130       -0.10967226391732
O           -4.68793127315172       -1.43861747213432       -0.32659013157484
C           -3.29550481049545       -0.28642192478339        1.28773310097981
O           -4.26527419319083       -0.36520875364298        2.30472930943614
C           -2.49894822343025        1.00475750663003        1.48460308900205
O           -1.78657695097252        1.02079329776727        2.69310758600787
C            1.43930309275504        0.90649370082785        1.60012888114186
O            0.85994465757705        2.07182142518842        2.13117178011046
C            2.95434605399004        1.13092812438648        1.47542211429079
O            3.55349610002335        1.41359816508021        2.70485521137213
H            5.27939622462875       -1.29088284506622       -0.85570422284603
H            5.63874297302261       -1.77463133761219        0.82798223092418
H            6.69138041556043       -0.59291565361338       -0.00679676868159
H            3.45739514678669       -0.99271990720698        1.44645978575183
H            1.44255974394533       -1.53087255441647        0.27298489497009
H            1.58715443333526       -0.22543615104085       -2.47316302558073
H            0.04373807534453       -0.87036716902380       -1.86338704586783
H            1.12210794625493       -2.91720311443672       -1.77513545927859
H            0.88153742042234        1.38797286533055       -0.44734015430485
H           -1.01353003562368        2.14293652001739        0.39881279198975
H           -2.13226552705692       -0.91385617179369       -1.11148674994931
H           -3.62051431906982        1.05260935827352       -2.80199585774451
H           -4.30187226517408       -0.59863230418934       -2.64289443194172
H           -2.68182703772360       -0.34361918265142       -4.37983596459085
H           -4.65064939017350        0.55466914826340       -0.16629331041418
H           -4.09972478471729       -2.20708959767767       -0.38359931758172
H           -2.59718375821875       -1.13642517609980        1.36290391303228
H           -4.96259845225129       -0.97612084014552        2.02089594573775
H           -3.19600711144326        1.85489138667784        1.43784545316565
H           -2.40105095095320        0.80246331472450        3.41227398430220
H            1.26318729081677        0.05729248131125        2.27882436718345
H           -0.00973094514272        1.84999862299454        2.51088916753827
H            3.14671579820952        2.00628265779033        0.84853758243001
H            3.35391659820939        0.71565960791540        3.34707701782173
