48
 energy: -84.741238748603 gnorm: 0.000711907891 xtb: 6.7.1 (edcfbbe)
C            5.74593055587778       -0.87894385623474        0.22660283730880
O            4.94240777055970        0.18740348818441        0.72855374483622
C            3.60161592878265       -0.12335989377161        0.86601200446852
O            3.04876769356858       -0.37085775833314       -0.40555833844212
C            1.67742010094846       -0.70096790553153       -0.36894476074007
C            1.24621618473510       -1.02275804662677       -1.80828137305969
O            1.69067994546324       -2.27429466660297       -2.25315260670558
C            0.86535937278170        0.46756635976844        0.20879440265267
O           -0.49004627081176        0.06140882943842        0.33328150622359
C           -1.45193134251032        1.09117907080659        0.19865290341679
O           -2.02545615162325        1.11111999667092       -1.06847864114847
C           -2.78158838383035       -0.05232155930564       -1.40987208149721
C           -3.20847049826144        0.16478704421027       -2.86016093878571
O           -4.12537606130443       -1.02738903384049       -3.24427031951294
C           -3.92085549812770       -0.23164607621507       -0.37005328982887
O           -4.63703442030313       -1.40994392304984       -0.68036649935448
C           -3.33240081119794       -0.33108223418307        1.04358032214467
O           -4.34002340241827       -0.56009150663370        2.00330184985195
C           -2.49461115907343        0.91341035062671        1.32667254742995
O           -1.85950925951603        0.87827646356400        2.58050028706270
C            1.40574471246101        0.86476665866307        1.60199387566131
O            0.81356067412705        2.05602516167434        2.06148917398442
C            2.92299395445286        1.07219669091278        1.55839132732012
O            3.38059030532260        1.19100232309532        2.87824625390505
H            5.40038369446215       -1.18330027125441       -0.76204846096556
H            5.70990417296656       -1.73133475679668        0.91094485147922
H            6.75364815341606       -0.47851347803588        0.17193327723676
H            3.47008170805457       -1.02760024531664        1.50140434133731
H            1.52668726891254       -1.57988826102552        0.27937671697583
H            1.70445225907195       -0.28644611102097       -2.47065854430220
H            0.15671235917545       -0.93396973407872       -1.87610238058856
H            1.24336998314078       -2.97734320048421       -1.76029282683997
H            0.94412387752841        1.32665469306435       -0.46747949502986
H           -0.97313764330622        2.07181747750030        0.30352547238222
H           -2.13064589461887       -0.93930947235906       -1.32422005441747
H           -3.92662230263018        1.01109329788809       -2.84955715414152
H           -4.57832170099471       -1.38543016633083       -2.43759788906100
H           -3.53943695538937       -1.70916489400054       -3.62773709040657
H           -4.59015831660450        0.64343880259717       -0.42503866914372
H           -5.18646748976986       -1.65592359623291        0.08035298420668
H           -2.68480971849192       -1.21634022468222        1.08398347583341
H           -4.79505417268778        0.26758245637167        2.21446139633301
H           -3.13507772614714        1.80286009649199        1.33394007106009
H           -1.49933924814733       -0.00978332371256        2.72292571899854
H            1.20691485280569        0.04188656223229        2.30185881690889
H           -0.03934978561346        1.85869090730548        2.48802607160644
H            3.13948971611698        1.97851724985273        0.97757317154991
H            4.32402297846147        1.41211021447074        2.86609705744863
