48
 energy: -84.859933531452 gnorm: 0.000333214257 xtb: 6.7.1 (edcfbbe)
C            5.74184372202545       -0.71101821297191        0.06226403087721
O            4.89943566412039        0.37089626008262        0.45181344649695
C            3.60033061355587        0.00801415551024        0.74193931731400
O            2.94856780575732       -0.30351349859050       -0.47368896012005
C            1.57953921694216       -0.63431771188915       -0.34870345883634
C            1.08841404470319       -0.97386073436110       -1.76420792558284
O            1.18837479903773        0.11338500658501       -2.64142912297290
C            0.79697252680549        0.53877285247042        0.25933866569013
O           -0.55300710464441        0.14067006532498        0.44977213214235
C           -1.51344479096850        1.16512228127497        0.35685387754746
O           -2.14358116239458        1.16651371069680       -0.88992091369113
C           -2.86576098569941       -0.02832289310938       -1.18405287716431
C           -3.51354370150876        0.18749205247336       -2.55969614136085
O           -4.31626088044006        1.33774833117307       -2.58692096421682
C           -3.92112562726817       -0.32758872016189       -0.10627066247733
O           -4.58548590634964       -1.54314883246628       -0.33864116477888
C           -3.27448561396753       -0.32525075122137        1.28759671438472
O           -4.23706813312430       -0.45666538625276        2.30663727613570
C           -2.52880792712940        0.99243768912863        1.49636902940551
O           -1.82591897694490        1.03269999792824        2.71043819403683
C            1.42155475361119        0.90149092437980        1.61920085034756
O            0.84345139321466        2.04533558210453        2.20174245154363
C            2.92187039731820        1.17992955068051        1.46101409739640
O            3.53641881032666        1.32313595480075        2.71143288941595
H            5.36183105283495       -1.18749506773207       -0.84288521293243
H            5.80964438581877       -1.44626795168456        0.86890470362273
H            6.71433237765655       -0.26517533011586       -0.12321571572054
H            3.57265533160797       -0.87860662340501        1.40928111253480
H            1.45765198337546       -1.51199289135978        0.30359496094711
H            1.66545845174127       -1.82931391972570       -2.13488268536845
H            0.03210538157424       -1.24025927836828       -1.71798771776906
H            2.11823932675065        0.37961789616315       -2.69172122045887
H            0.84869768204244        1.39597201992981       -0.42211390789230
H           -1.04011496807656        2.15088779381552        0.43302340541218
H           -2.16197737508333       -0.87147835138026       -1.23666395833831
H           -2.72128277185084        0.24715618164793       -3.31533559382092
H           -4.17356462875093       -0.65291928375405       -2.78117059505798
H           -3.75634068944017        2.10003947609590       -2.37998417332034
H           -4.69858008736067        0.44399329626271       -0.14619420406955
H           -3.94258866683303       -2.26671706553568       -0.38860429352327
H           -2.54175365575480       -1.14713197179296        1.35043953631354
H           -4.90811008260412       -1.09335964837623        2.01701393825825
H           -3.25279035616266        1.81912763229160        1.44490729778274
H           -2.43215376141940        0.77145128430026        3.42220871756414
H            1.29661653505950        0.03571126478248        2.28645872615822
H           -0.03624182747539        1.81513023001353        2.55196479413926
H            3.06269445602591        2.08278516762029        0.84980478831135
H            3.08058698310326        2.03556948130039        3.18829059795740
