48
 energy: -84.860222713091 gnorm: 0.000772964793 xtb: 6.7.1 (edcfbbe)
C            5.76279862840327       -0.57860616254497       -0.06137901573022
O            4.88275709061355        0.46989919444787        0.33620603039916
C            3.61020523245670        0.05421226086509        0.67142904023022
O            2.93130559865304       -0.28401120066144       -0.52245143842169
C            1.57608661068016       -0.65279178049847       -0.35690894711593
C            1.05137376867760       -1.01537071274715       -1.75434201752620
O            1.09088498813625        0.06805521659885       -2.64144063145555
C            0.78119078317006        0.50239364310556        0.26887538734131
O           -0.55765260670981        0.08010353490019        0.48067508025672
C           -1.53524562651481        1.08852479587917        0.40746180161153
O           -2.18452089401434        1.08335038442878       -0.82993580192776
C           -2.88747496838895       -0.12715031421241       -1.10965139353647
C           -3.47274254954416        0.03058791709440       -2.51878959841735
O           -4.46263011734874        1.02537545895277       -2.58154645334730
C           -3.96396212775631       -0.37922891559954       -0.03809698676443
O           -4.60833127973814       -1.61856134106954       -0.21032346957555
C           -3.29603129260488       -0.41144802288340        1.34358946309372
O           -4.24089432187837       -0.53423399885066        2.37830274768248
C           -2.53123091957129        0.89389791909473        1.56119834441939
O           -1.80821186776429        0.90556129602615        2.76331121190095
C            1.42773538392767        0.87119576821096        1.61623494265995
O            0.82977022224508        1.99011856158249        2.22640999126286
C            2.91308571493473        1.19850768058845        1.41742321171742
O            3.55984598075014        1.35415486534499        2.65016185847078
H            5.37312781315057       -1.09677280847395       -0.93909483777241
H            5.89889891383907       -1.28852605669921        0.75916548711985
H            6.70360577676740       -0.08975629868844       -0.29589002825112
H            3.64166239548887       -0.83216889932630        1.33846070681681
H            1.49648297718213       -1.52995675487258        0.30235261062081
H            1.64142400920726       -1.85604882031421       -2.13811846825618
H            0.00570744816085       -1.31357130713115       -1.67100637369031
H            2.01050316159249        0.36189214453740       -2.72259870426837
H            0.80515917691162        1.36252414788427       -0.41064816441872
H           -1.07726019787438        2.08188898309589        0.48106118474373
H           -2.18529429902624       -0.97167316256984       -1.10109012969059
H           -2.64577358497542        0.25281253827305       -3.20275578173322
H           -3.94719214957416       -0.90251031740060       -2.82628659060448
H           -4.04842793870302        1.88012986050002       -2.39677682108765
H           -4.69000394052249        0.44565571748516       -0.05981011988614
H           -5.23159827889831       -1.56201905144650       -0.94714362353705
H           -2.58433958208691       -1.25022994906921        1.36941511684929
H           -4.80527459585345       -1.29816684431252        2.18640190003083
H           -3.25155255981866        1.72606722092509        1.54182896955875
H           -2.40060150369418        0.61635636378465        3.47618787206445
H            1.34813614235601       -0.00464710720760        2.27729248838596
H           -0.03668176674356        1.72928276769227        2.58792497577097
H            3.00708897135430        2.10922410708948        0.80880647243861
H            3.09407418254949        2.04667558419058        3.14647541259649
