48
 energy: -84.856261437165 gnorm: 0.000271915781 xtb: 6.7.1 (edcfbbe)
C            5.70255430960930       -0.91917704255350        0.08554072414649
O            4.92824189799304        0.16024486069024        0.60447130203593
C            3.58670502610069       -0.12963753350417        0.77802442940730
O            2.99192117780292       -0.34046600069108       -0.48256841029641
C            1.61907332628004       -0.65843499191138       -0.40634967409921
C            1.15229989372093       -0.98455917275846       -1.82765635788129
O            1.33389492736681       -2.36055395940827       -2.05774089970112
C            0.84069925369133        0.51256095639305        0.21151251692124
O           -0.50963009311768        0.11253857752513        0.38440868670218
C           -1.48251909633607        1.12509952792802        0.29897439262134
O           -2.10085010531564        1.12529614096325       -0.95657550154287
C           -2.78762301599113       -0.09269155588633       -1.25586876382023
C           -3.41003761567334        0.07692912474391       -2.64666047989366
O           -2.43872846008582        0.17669872983313       -3.65466319203625
C           -3.85365192239649       -0.41326913088764       -0.19698529525160
O           -4.50378515828884       -1.63126181519337       -0.45075434929079
C           -3.21826340230252       -0.41128986894855        1.20367219537178
O           -4.18735148493071       -0.56491814841717        2.21254259411470
C           -2.50472332481263        0.92326222300359        1.42607624219128
O           -1.81634151495076        0.97584577451588        2.64669872839455
C            1.43063084940493        0.87827529164721        1.59283832040788
O            0.86415433664948        2.06859850441526        2.08468159540505
C            2.94869273094743        1.06460791841027        1.51000838105433
O            3.44860633717871        1.15769105346724        2.81609128300796
H            5.32669008667107       -1.22198220143330       -0.89234329326109
H            5.67122220776590       -1.76970591979851        0.77224770362928
H            6.71447244235807       -0.53421884941131        0.00334317492353
H            3.45549719407879       -1.04327835006165        1.39780220618594
H            1.47201886998605       -1.54884504216333        0.22391136028036
H            1.75361499394837       -0.38318686063443       -2.51810370298398
H            0.09530917127882       -0.71313058287479       -1.92798408325938
H            1.14189120252004       -2.55675369930709       -2.98644586156520
H            0.90543325464737        1.38428487323819       -0.45079455002572
H           -1.02417756318024        2.11620780182330        0.39173915331557
H           -2.05420329382493       -0.91257884591800       -1.27813261374969
H           -4.05589042030584        0.96201495760586       -2.63309458500449
H           -4.01146828998104       -0.80345776440985       -2.87831142727642
H           -1.94599942277546        0.99874076551334       -3.52418965087822
H           -4.63942234665295        0.35027888474921       -0.22658934199756
H           -3.85206561130289       -2.34636037955441       -0.51162803441448
H           -2.46805713590965       -1.21606907489024        1.26808892517011
H           -4.81161908342067       -1.25552224452843        1.94165847617148
H           -3.24721388590994        1.73357353710516        1.36836845578881
H           -2.42493508146639        0.69872962720697        3.35042097787116
H            1.22876334635158        0.04693307698083        2.28087122877109
H            0.02323319366337        1.86041561243026        2.52669538631903
H            3.16246208143239        1.97694880219407        0.93688769748696
H            4.39504722528985        1.36292542169994        2.77740497870268
