48
 energy: -84.740941209085 gnorm: 0.000662877388 xtb: 6.7.1 (edcfbbe)
C            5.67303326029783       -0.91642744904637        0.14787593934385
O            4.90567352291431        0.19281909966406        0.60980624772379
C            3.56034000073609       -0.07270270724686        0.79517666320099
O            2.97319048256754       -0.37891798036193       -0.44713636878543
C            1.58815830932622       -0.63713284290216       -0.37865626083928
C            1.12553373889342       -0.96187875998916       -1.80319954272239
O            1.26360989721397        0.18445884744454       -2.60354498658367
C            0.82459341273042        0.56750632142475        0.18779843518164
O           -0.52814472839026        0.18126923501945        0.38570439677077
C           -1.48501035837502        1.20468686341212        0.25309186086814
O           -2.11072960111551        1.16427033357314       -0.99024111782821
C           -2.83109444123565       -0.05279556139107       -1.25012573887013
C           -3.25479390094138       -0.02778905145391       -2.71421584951529
O           -3.80082297214346        1.38097438765777       -3.00124980374398
C           -3.94174536816044       -0.20654655376403       -0.17333557563589
O           -4.72124746836173       -1.36581259613239       -0.36033508130426
C           -3.30410848440830       -0.20264820912140        1.22346091543522
O           -4.27676184164999       -0.26343173218205        2.24544299195054
C           -2.50482384164637        1.08731054769169        1.39892065250514
O           -1.80345289212421        1.13759579732369        2.61351515535918
C            1.41991836828855        0.99728599316847        1.54625862316501
O            0.85678404016859        2.20764507780837        1.99269500763211
C            2.93491660708754        1.17806991244765        1.43576077488433
O            3.45285146115022        1.37300344631599        2.72383252572485
H            5.31513284879582       -1.24665059280956       -0.82778824397250
H            5.61336620533568       -1.74069261352974        0.86427752961790
H            6.69235337860914       -0.54920406987858        0.07516524334316
H            3.41917477438645       -0.93627439040357        1.48355056304769
H            1.39905400903155       -1.50376398039748        0.27513871311113
H            1.75081505135704       -1.77998964413573       -2.17842000025553
H            0.07804130984753       -1.28298040847859       -1.76010839887420
H            1.04255318788220       -0.04315671036239       -3.51851498286804
H            0.89358196973413        1.39532101475618       -0.52626643298250
H           -1.00269053663354        2.18875408980737        0.29917736531857
H           -2.15141930821253       -0.91048569263931       -1.11923408760511
H           -4.48466000136541        1.69242715451423       -2.37020552001714
H           -4.15150860808894       -0.67050814491360       -2.79983228537467
H           -3.00523428429707        1.94544106919024       -2.91719179994407
H           -4.65240172090266        0.62788670679273       -0.22379571675605
H           -4.14352985284982       -2.11986578154068       -0.54551678172251
H           -2.61040284334204       -1.05497558481387        1.31128434425692
H           -4.95859579727290       -0.89779084518625        1.97579205782328
H           -3.20001520096204        1.93941468353336        1.33042838637915
H           -2.41564561517681        0.89674459270064        3.32683540152023
H            1.22412355573448        0.19797405502322        2.27433571218590
H            0.01100100575404        2.01582499099996        2.43319327481663
H            3.14244516086378        2.04006933770581        0.78777056619707
H            4.40059712503726        1.56487937935356        2.65434819846643
