48
 energy: -84.855874845685 gnorm: 0.000548481999 xtb: 6.7.1 (edcfbbe)
C            5.59195620445832       -0.93660962990627        0.21230813390881
O            4.84164739993242        0.20236861427033        0.62807991459775
C            3.49083156406885       -0.02762950972252        0.78596270585250
O            2.90828002679642       -0.26609310079988       -0.48088092417584
C            1.52604895556306       -0.56166445715441       -0.43734905818223
C            1.08025867865307       -0.79101156597891       -1.88938020838615
O            1.25083340732522        0.34962428167595       -2.68450782543142
C            0.72524631053497        0.58026948281146        0.20744390997537
O           -0.59932686110180        0.11736462300830        0.41782027801885
C           -1.60855648705810        1.09550706829429        0.36661034193278
O           -2.26781793846245        1.09531330205232       -0.86517911370188
C           -2.95596836039845       -0.11768174499352       -1.16079954332143
C           -3.64629252904534        0.09101915428000       -2.51496076109202
O           -4.51019244754547        1.19709697894209       -2.50306385068183
C           -3.96904729155923       -0.46704652948423       -0.06438859454507
O           -4.50919354338977       -1.73071255191027       -0.35941432303018
C           -3.28559192036306       -0.47985954313997        1.31608062205834
O           -4.21365934729487       -0.80624056626199        2.31948705340188
C           -2.57869046451251        0.85942585426228        1.53908463891592
O           -1.90484414689114        0.84996398350632        2.76858163199515
C            1.33991167589072        0.96978734506617        1.55968313516411
O            0.68798749554812        2.11529808851108        2.06196162219919
C            2.84967986767059        1.21211386542371        1.42731610221440
O            3.40305757359458        1.55964249160764        2.66497460254781
H            5.25585144094098       -1.28161876087397       -0.76625389018311
H            5.49194802643324       -1.74429677937892        0.94308162624503
H            6.62257471190762       -0.59901184130893        0.16223887362093
H            3.31107244941856       -0.91892867786771        1.42812921627913
H            1.35023502992483       -1.47646667639954        0.14834844982331
H            1.63990202582410       -1.64071232878420       -2.29724554574597
H            0.01385586917086       -1.02159734199533       -1.89649158936953
H            2.19503961897366        0.56500300836014       -2.71207202181802
H            0.72601217254929        1.44509311571090       -0.46702889906504
H           -1.17324708607498        2.09955635401724        0.45149977803985
H           -2.24058049583525       -0.94669855152742       -1.23864046452647
H           -2.87688235433664        0.20850498019272       -3.28720341713008
H           -4.25779909874572       -0.78594096177120       -2.73198267859546
H           -3.98483207304011        1.98398362753107       -2.29616086372081
H           -4.76710440612737        0.29450006375302       -0.06899460139981
H           -4.94577884746856       -2.06281304251363        0.44177603602250
H           -2.53382575974265       -1.27673890716818        1.33667219274781
H           -4.72843648610395       -0.02323827800639        2.56273698250768
H           -3.32807149066876        1.67028911309624        1.52234650579277
H           -1.15301906553268        1.46668471122674        2.72938152733849
H            1.16783580416295        0.12816420288494        2.25209900636982
H            1.30037591922720        2.56218992435441        2.67199197428380
H            3.03481716561887        2.06652514262217        0.76790127076835
H            3.46765111073498        0.78443597681229        3.24261707989744
