48
 energy: -84.742801156300 gnorm: 0.000368005927 xtb: 6.7.1 (edcfbbe)
C            5.64278889600805       -0.84668125296126        0.09733656857302
O            4.88646982349159        0.20151882438935        0.70074490552374
C            3.52837133689650       -0.06230174204015        0.79949349638360
O            2.98015140542349       -0.18552198618871       -0.48205371034121
C            1.60043612917317       -0.52968108252119       -0.48872289783216
C            1.28322217250824       -0.75238174843777       -1.96261550562620
O           -0.06677559925893       -1.57352671660511       -2.00418462272307
C            0.80406923429925        0.58847867458198        0.23737369873585
O           -0.53980897539489        0.14854495560492        0.40578838761963
C           -1.51832589310337        1.15754411622824        0.40454673085499
O           -2.14480787454146        1.22636058455770       -0.84580190397228
C           -2.81605681515591        0.00668019799035       -1.16113307676018
C           -3.19849874936139        0.02519277874710       -2.63449590326956
O           -2.04498554236526       -0.29089960149797       -3.38859717618642
C           -4.00056158676235       -0.16653942718966       -0.20390451608618
O           -4.73800201105369       -1.30302310898697       -0.56479042693352
C           -3.41540141366136       -0.31256306869435        1.21529355572213
O           -4.42662307626185       -0.53277070061776        2.16594274239990
C           -2.53182393481217        0.89616470637028        1.54403493954720
O           -1.85728936594185        0.76099144236724        2.76971116071686
C            1.38006385518916        0.89824564236068        1.63687359339450
O            0.79171211119628        2.05827107632293        2.19037436437532
C            2.89348856599327        1.10184688254685        1.57686525023179
O            3.38668649674327        1.14764699581380        2.88935370613495
H            5.28313372417997       -1.03647315892141       -0.91440054980001
H            5.56333829722618       -1.75825640670088        0.69672920217305
H            6.66768950837465       -0.48854989210276        0.08178756404351
H            3.35617280013147       -1.00675268125635        1.36639324402167
H            1.45287260688392       -1.46220492364844        0.08319255350562
H            0.99053157736395        0.23038210642666       -2.37898571213937
H            0.17107539578124       -2.40398032553638       -2.46619507001110
H           -0.71798147524033       -1.08712888091176       -2.57822229441909
H            0.83784991363214        1.50018970405546       -0.37224805014509
H           -1.05933682753498        2.14225969591741        0.55114841246277
H           -2.12896611915274       -0.83126202680491       -0.99063112797307
H           -3.57040296748347        1.02206738658994       -2.88826817942800
H           -3.98109773996305       -0.72467454544476       -2.78973217025950
H           -2.24735877995185       -0.23691479665578       -4.33376212642095
H           -4.63615288387409        0.73345781281963       -0.25196841793102
H           -5.23241799897570       -1.60852969141752        0.21334118187902
H           -2.79971842056612       -1.22076780585059        1.23462560396106
H           -4.89347184274875        0.29298313653146        2.35970218127356
H           -3.15512615891108        1.79230258529056        1.64211912390189
H           -1.46572001946949       -0.12401091836988        2.81389417369530
H            1.19509439397272        0.03116742984155        2.28483770437808
H           -0.01243474884297        1.81533638837842        2.68079434118408
H            3.10958815873918        2.03565425537649        1.03884047020247
H            4.34699241058080        1.27532702322381        2.85382774967649
