48
 energy: -84.852073425884 gnorm: 0.000450210913 xtb: 6.7.1 (edcfbbe)
C            5.61427075966902       -1.10752183031534        0.31114963091947
O            4.91002128615207        0.06897346465031        0.70145558116781
C            3.54111926963830       -0.09159523971200        0.81641862478800
O            2.99192932597196       -0.36401583020352       -0.45243985355035
C            1.59754045325627       -0.57650883188975       -0.43682622252735
C            1.17839565480443       -0.80426820655544       -1.89333122831021
O            1.30732248614652        0.39927205898922       -2.60939477993916
C            0.81929108625620        0.59673273213107        0.18543390616220
O           -0.50660697636508        0.12818173423539        0.40445666789128
C           -1.53043981808157        1.09698562884176        0.34043537286292
O           -2.18103495664163        1.07749266090010       -0.90083135278671
C           -2.80514400426623       -0.15765428443215       -1.22055752252976
C           -3.42198866116637        0.01023353144043       -2.61913334561883
O           -3.87133840929423       -1.20141737796720       -3.16198755975744
C           -3.86215754496919       -0.51912539630675       -0.16620069895550
O           -4.49390213870681       -1.74752848746903       -0.43770110946581
C           -3.22247842585158       -0.53057702735986        1.23011421149444
O           -4.18859469117317       -0.75569730214320        2.22679997581001
C           -2.52981959336286        0.81476495399628        1.49046123554794
O           -1.90294435342073        0.86405019101118        2.73748247294845
C            1.44218251094012        1.08836994673892        1.49835759008230
O            0.86143965251382        2.32626315320681        1.81797313725994
C            2.96397997827899        1.21671128066772        1.37019127921011
O            3.47007965062574        1.51315198665578        2.64438212563388
H            5.28921389561312       -1.43560579884551       -0.67666569612066
H            5.44904018199063       -1.90529504210470        1.04080521342052
H            6.66195257245233       -0.82298849188992        0.29122072181539
H            3.29761211336490       -0.93042126965954        1.50537104221330
H            1.36912820946705       -1.47903515802255        0.15391848872543
H            1.82930806471766       -1.58244348847205       -2.30199184993716
H            0.13675522675621       -1.14887847948549       -1.90776206198130
H            1.41155409237165        0.20543487318524       -3.55109325867048
H            0.81268203131431        1.42969775131954       -0.52768448918210
H           -1.11989878954932        2.10447613411485        0.45004576206330
H           -2.04693193473752       -0.95585673089996       -1.25232045703602
H           -4.22980391934259        0.74952141214935       -2.56009094188581
H           -2.65256137438891        0.39356732305830       -3.29149966656426
H           -4.58050135424891       -1.55043809752446       -2.59593690914770
H           -4.65877495789765        0.23346889871017       -0.17883758421735
H           -3.83518572168064       -2.45925193171292       -0.43935335026027
H           -2.45352809860026       -1.32306223550764        1.26794744644698
H           -4.82243362927934       -1.41379971136121        1.89785351366413
H           -3.28174915086603        1.60894114744390        1.50497844581302
H           -1.25172999127197        0.14924672915366        2.78595470577493
H            1.23091693159851        0.35321836314911        2.29103196420782
H            1.30110748053005        2.67646307404830        2.60859307605995
H            3.20077278735567        2.01414518213809        0.65085928486136
H            4.43636679997364        1.57047604153643        2.59763349023964
