48
 energy: -84.747390367235 gnorm: 0.000619293787 xtb: 6.7.1 (edcfbbe)
C            5.63656625793902       -0.69805556456748       -0.09174282867373
O            4.85419890543707        0.34561238286851        0.48633672614291
C            3.52388944776264        0.01408713485545        0.68780460247911
O            2.90487114714810       -0.23317690422858       -0.54613171513452
C            1.53466739407668       -0.61445092131042       -0.43818437858040
C            1.11357609225860       -1.01590513339680       -1.83870974360355
O           -0.02515178398601       -2.12530483717802       -1.65914874049778
C            0.75310985184981        0.54461941126127        0.23475307787996
O           -0.59320207990329        0.13642541845033        0.41421665265494
C           -1.55605749075005        1.15713094314239        0.37916893851471
O           -2.19592839899929        1.22378034116661       -0.86268207345045
C           -2.89614538427121        0.03117115691416       -1.21683726481728
C           -3.55613513183510        0.29848360316427       -2.57511963795385
O           -4.43723411294978        1.39118170012071       -2.53416292504533
C           -3.94082212366804       -0.35253628652444       -0.16192712442458
O           -4.45370660007489       -1.60942506350366       -0.52166402454868
C           -3.30374693989851       -0.39714844687169        1.23302413347675
O           -4.33074527483612       -0.63227394093557        2.16625972795868
C           -2.56547832338787        0.91528008197424        1.51066467688837
O           -1.93700299225566        0.82921047248261        2.76516662792609
C            1.37706279621459        0.89033085526185        1.59366843462750
O            0.69456127768661        1.97992176233452        2.17974315570494
C            2.86111764364928        1.19853469361196        1.40640372257876
O            3.41962170446066        1.42897921210231        2.67285680392064
H            5.23510716545131       -0.97348205651693       -1.06730340622917
H            5.64335971685882       -1.56994453959391        0.56825063472206
H            6.63662350497777       -0.28701531084999       -0.18963030658738
H            3.44094552514694       -0.89331164215163        1.32930195230157
H            1.46984328014174       -1.47761123173194        0.24857849912228
H            0.51934141730971       -0.18632202773398       -2.26538991902586
H           -0.18579038971666       -2.41045560121503       -2.58410583091917
H            0.41044636807088       -2.87929559545677       -1.21129324596052
H            0.80016500818326        1.42510437430158       -0.42023353260239
H           -1.08383890387101        2.13974654576618        0.50801763949318
H           -2.18441624911263       -0.79812623975618       -1.30477592043466
H           -2.77158612250321        0.46812450765107       -3.32173850840644
H           -4.15106634495198       -0.57341692562743       -2.84965107880274
H           -3.93514880869650        2.17182733616452       -2.26019571049806
H           -4.74097899019005        0.40359031083250       -0.15419177775336
H           -5.07543325013691       -1.88905554345256        0.16719800004599
H           -2.56448386722643       -1.21188401941047        1.26356029072657
H           -3.96424797476625       -0.53170888239784        3.05671524602531
H           -3.29102565921231        1.74480879333559        1.50815561380326
H           -1.10832161417269        1.33951846953735        2.74538221476595
H            1.28150758744639        0.01223165052846        2.25244586812779
H            1.25056817419677        2.31538585816290        2.90238863099708
H            2.97342025350220        2.08179899678237        0.75935825384035
H            4.37471931272729        1.56031168241655        2.57751973885867
