48
 energy: -84.746096267328 gnorm: 0.000620235329 xtb: 6.7.1 (edcfbbe)
C            5.62579717668202       -1.08405506745666        0.37942308775262
O            4.89781006602475        0.08419249168394        0.75170015806862
C            3.53023070345411       -0.09384163063167        0.85377570905946
O            2.99222580281399       -0.31372791645901       -0.43073458753491
C            1.59360922979004       -0.51814835411631       -0.44654468140829
C            1.20393663732622       -0.64924634723315       -1.92862338869589
O            1.63335499968187        0.45259145371545       -2.67810056813719
C            0.81395303140762        0.63422935491617        0.21054642267356
O           -0.51815665233220        0.16647069450484        0.38341673167904
C           -1.53521319984631        1.14722544093030        0.33695162874362
O           -2.16598860263730        1.19118935600812       -0.90648552128692
C           -2.82934671709672       -0.00863396906334       -1.30525651994088
C           -3.32761615373623        0.26718868015016       -2.72407433814890
O           -4.19099319038967       -0.95606457954454       -3.14626556712556
C           -3.91242324387570       -0.35570648141129       -0.24963272833161
O           -4.53522540097501       -1.57436084685527       -0.60465599851480
C           -3.26202948658303       -0.47746752944115        1.13249099633983
O           -4.21282616828853       -0.86104058829762        2.10385521557510
C           -2.55235270576824        0.83700225006289        1.46230552604830
O           -1.96054900146152        0.82200373872457        2.73010479575891
C            1.41738037102672        1.04721944395638        1.56054336850580
O            0.82970011055892        2.25879217982708        1.95874104238402
C            2.94007346500775        1.18548858062189        1.46062675602464
O            3.42618895039421        1.41844596670480        2.75563242035650
H            5.30463207830681       -1.44160218033058       -0.59923236288599
H            5.48389956354807       -1.87055944483330        1.12575138394467
H            6.66656592789228       -0.77602686750399        0.34718907556469
H            3.28945888735887       -0.96166672864668        1.50430276219702
H            1.34190479143191       -1.44379697599214        0.09303294776495
H            1.62918043669625       -1.57857489163689       -2.32573693182742
H            0.11723953354020       -0.67419965285174       -2.01266439608338
H            2.59489852879138        0.52691446142025       -2.58752622189152
H            0.82205482593453        1.50152444694488       -0.46150849717761
H           -1.11239735441127        2.14499365043767        0.49268630250035
H           -2.10219517723029       -0.83949989517242       -1.29972307754545
H           -4.09506560763878        1.06455939536640       -2.63033778875183
H           -4.56216950787564       -1.40601991417555       -2.34358587638353
H           -3.58840823246989       -1.56482250623701       -3.61718276169662
H           -4.65998651379132        0.45537594506142       -0.22823256085219
H           -5.01731966462095       -1.91198582314531        0.16716343637033
H           -2.52168231540647       -1.28743108651897        1.09807711212930
H           -4.59409953270282       -0.07653745977844        2.52144535475203
H           -3.28263172361829        1.65450538472790        1.48172832714656
H           -1.24640066417646        0.16875716030306        2.72839207321253
H            1.20031567545200        0.25888732272455        2.29969526351972
H            1.28043541397823        2.56832618003414        2.76047712516374
H            3.18522609791042        2.02068763444777        0.78901027316870
H            4.39203351724855        1.49214251614944        2.72439609726030
