48
 energy: -84.854054885141 gnorm: 0.000931197523 xtb: 6.7.1 (edcfbbe)
C            5.70642318536083       -0.87595074357744        0.24398286608458
O            4.91531980577495        0.18864266363740        0.76857282133060
C            3.57080549310668       -0.10688851985698        0.89699936483321
O            3.01205517711968       -0.31273655428349       -0.38214229880507
C            1.63566940196190       -0.62580633020979       -0.36455094312539
C            1.20482215064259       -0.85215789877372       -1.82088047306386
O            1.65629257899052       -2.06673637430679       -2.35073600777711
C            0.82106304125673        0.50564924107772        0.28583645138436
O           -0.52344126624558        0.07678264716385        0.41428837347478
C           -1.49981546132638        1.09371785566509        0.35076255223600
O           -2.09432909554608        1.15598594835048       -0.91191718299917
C           -2.83777243354363       -0.00847136276590       -1.26676959497595
C           -3.42743362729264        0.22613729654367       -2.66609686339796
O           -2.53850093933072       -0.08608441594122       -3.70814781653427
C           -3.95347121122839       -0.29474320545050       -0.23771924900790
O           -4.69322217540021       -1.42793694575157       -0.60299669535853
C           -3.33251009251293       -0.41314896798581        1.15938574042946
O           -4.35469989449031       -0.61696116886074        2.10048083372826
C           -2.53409078237651        0.86071563510784        1.46216087395375
O           -1.92464740443319        0.71833873096145        2.71884027858169
C            1.39263337472357        0.81811280891644        1.67882854685854
O            0.70472030307556        1.91482335927338        2.23468834607225
C            2.89466066558236        1.09070002119768        1.58117410003972
O            3.37364832651680        1.29785379327771        2.88214576102299
H            5.35395423217924       -1.15864312395544       -0.74856557653245
H            5.66519127440744       -1.74022807480861        0.91260670460460
H            6.71774551093979       -0.48462142436061        0.19167771808063
H            3.42291192844795       -1.02083011988148        1.51254908114794
H            1.47120656785227       -1.54144396300063        0.22656856437574
H            1.65513746264146       -0.07106069632721       -2.43597589842271
H            0.11413357532533       -0.76707930793923       -1.87854878543654
H            1.24270106764526       -2.80667954155754       -1.88281437642070
H            0.87710376477265        1.40169657562890       -0.34369414266717
H           -1.03252839622951        2.07613903338575        0.49102501625555
H           -2.15415684386320       -0.87021515591084       -1.29000812388859
H           -3.64811705820272        1.29109005652464       -2.76007639956831
H           -4.35592699590084       -0.34759734823241       -2.74860653273487
H           -2.51033128671411       -1.04473388783946       -3.83636622230958
H           -4.66490510173030        0.53866599144400       -0.23695936565931
H           -4.24203857253028       -2.23062886235719       -0.30267551160358
H           -2.62520737150896       -1.25965459877896        1.17640030274941
H           -3.97615652845697       -0.51580398289782        2.98687759826845
H           -3.22621808023538        1.71829805879414        1.46641544847948
H           -1.12318866890607        1.26946611813918        2.75085516108073
H            1.24035860637920       -0.06559799435366        2.31883121075627
H            1.23002847534816        2.23971918908883        2.98513248402082
H            3.07022913802742        1.97401066365958        0.94926797003339
H            4.33299218567357        1.42828587942428        2.85285693690453
