48
 energy: -84.828936822141 gnorm: 0.000917991875 xtb: 6.7.1 (edcfbbe)
C            5.63044617589193       -0.58821735060897        0.64278029337997
O            4.73461679253084        0.43416171930801        1.07451040341699
C            3.42498785532802        0.02301591389496        1.23999668774976
O            2.88855599245680       -0.32118052939123       -0.02707626535987
C            1.52732678305914       -0.53398367561209       -0.10214037212616
C            1.06236864566350       -1.56290680080777       -0.79064338983753
O            2.75993096541045        0.31462528652764       -5.72203455282030
C            0.65812632183345        0.51812422157554        0.55384119320648
O           -0.68263824821156        0.07310692104348        0.61010487698509
C           -1.66554442132592        1.07888745906835        0.55776692468642
O           -2.21678627822052        1.20462911741091       -0.72243241249622
C           -2.88062750824245        0.03236428417686       -1.18338590805824
C           -3.39995618270107        0.31208707602023       -2.59096213782709
O           -2.32110117468685        0.26584843074625       -3.49451027260817
C           -4.01969235746877       -0.35756088034100       -0.23219324532973
O           -4.60561010083941       -1.54392944199620       -0.69772169706687
C           -3.46593357292638       -0.52595536103764        1.18796152715509
O           -4.54706235822768       -0.82466090098645        2.03764341522234
C           -2.74517505939213        0.75955016269753        1.60436605446400
O           -2.20041960070132        0.58383817350015        2.88624236543048
C            1.17924272289209        0.80883762817674        1.97282349778762
O            0.42225016617443        1.84258731880459        2.55780118628093
C            2.65874884181289        1.18286595599756        1.88758887236022
O            3.11245679145339        1.43962732914381        3.18850028432371
H            5.34105077838674       -0.95909637478623       -0.34085610716328
H            5.63673661362683       -1.41173624662319        1.36192624783277
H            6.60709494457377       -0.11561676626429        0.59827287458784
H            3.37306817331396       -0.86777943129624        1.89982350118896
H            1.73117291371521       -2.26617552271650       -1.24980893236695
H            1.83606304474320        0.06249028736130       -5.62538777105490
H            0.00659761015887       -1.69098304817555       -0.92367980108599
H            3.10803038462026        0.44095565367586       -4.83443726574023
H            0.71868067455785        1.44301365937655       -0.03961048856470
H           -1.22658765536959        2.06159914662024        0.77115253333190
H           -2.16472480321067       -0.79822699523944       -1.23392305071453
H           -3.86984629074302        1.30242885300419       -2.58963964615297
H           -4.14324147993280       -0.45784317694895       -2.82829383670237
H           -2.64595825394204        0.47455477357208       -4.38218511604973
H           -4.76561359278002        0.45419010147385       -0.21404084677721
H           -5.20220924222344       -1.87285643392370       -0.00664099229080
H           -2.73252937302792       -1.34656856252078        1.19687057202697
H           -4.23164774971569       -0.79583690404158        2.95279934099149
H           -3.47093825802530        1.58940062791334        1.60983176354274
H           -1.39721678590204        1.12888497152249        2.97015442753177
H            1.07469221601963       -0.10669075908197        2.57582607175300
H            0.91797273869785        2.16458184584236        3.32946558481990
H            2.77981017503611        2.06922444495093        1.24651217420610
H            4.05649367456232        1.65518850789769        3.16350490594368
