48
 energy: -84.844298990955 gnorm: 0.000752285886 xtb: 6.7.1 (edcfbbe)
C            5.49155786183448       -1.26268283885421        0.38018026438544
O            4.85704709178346       -0.06161478186626        0.81409331347226
C            3.47485404641572       -0.12711183933580        0.84893909570403
O            2.97986103281598       -0.26531576258305       -0.46212830544047
C            1.58199807856577       -0.44697002756838       -0.50659155597555
C            1.19871574778893       -0.59685197040067       -1.98756782270968
O            1.63731029393860       -1.80500284806656       -2.54585066579961
C            0.81908856807221        0.71866572174981        0.15072535701989
O           -0.49799854727476        0.23310302138959        0.37962896903256
C           -1.53272948124767        1.17884557020210        0.35429894668210
O           -2.20124547335128        1.16788673877424       -0.87825697364846
C           -2.77671913877910       -0.09481133946158       -1.20037379994469
C           -3.26331284197068       -0.00321434054167       -2.64522273881182
O           -2.13438273124153       -0.06190181481289       -3.48601253056731
C           -3.88500189047029       -0.44332522364943       -0.18525396628472
O           -4.44455617786715       -1.71038071048059       -0.42449586634092
C           -3.24550377798197       -0.46397128605456        1.21194744610161
O           -4.16314281443619       -0.74443712503004        2.23795714454851
C           -2.53393816445300        0.87130595954990        1.48445287026387
O           -1.86262525106524        0.85272887450053        2.71229231648670
C            1.43612964704390        1.20958477373171        1.48246072338975
O            0.94243135669494        2.48489072805360        1.80811245125197
C            2.96831036188291        1.18956382457225        1.45652404290201
O            3.43681504785114        1.36437732452791        2.76501624587504
H            5.16784147521051       -1.52034957904620       -0.62905918064543
H            5.25582339165962       -2.08133091447259        1.06587477957247
H            6.55584173294315       -1.04860532493040        0.39631911421693
H            3.13288406320084       -0.98488321944147        1.46624726872640
H            1.31442483973125       -1.36093559370932        0.04948840308118
H            1.70663669347319        0.18930043076482       -2.54964399623410
H            0.11561520355101       -0.47494710850751       -2.09682873733927
H            1.14772814883010       -2.54363674065166       -2.15711053083721
H            0.78603344300231        1.56275719448780       -0.55208899942930
H           -1.14292239464664        2.19287031486944        0.48361616251324
H           -2.00411271478072       -0.87256321398256       -1.14318313666163
H           -3.79950586160016        0.94426620960380       -2.76812273530053
H           -3.93008420301874       -0.84886044683976       -2.85052920975705
H           -2.40476799497437        0.09206860638124       -4.40239905185638
H           -4.65013226291278        0.34554938582468       -0.21329982884374
H           -5.17460724548063       -1.64951476961959       -1.05543459806002
H           -2.50904843410160       -1.27308813620233        1.24916875714858
H           -4.93806149950876       -0.16863950565044        2.15661753552692
H           -3.28416995041344        1.68209365589942        1.47574702527569
H           -2.40463938386451        0.34955741934814        3.34290841266443
H            1.08433201590310        0.54967474355518        2.28363304908037
H            1.49683275028647        3.16781291603481        1.40053425627019
H            3.33294287268136        1.99628591275118        0.79903455583602
H            4.40497546443748        1.30409213620602        2.76099973350608
