48
 energy: -84.712064377343 gnorm: 0.000672644978 xtb: 6.7.1 (edcfbbe)
C            5.64349803633593       -0.97872749331629        0.53027232324958
O            4.92580128715645        0.20588225995679        0.87040757043921
C            3.55992177231697        0.03437376927433        1.00277451260288
O            3.00547458919291       -0.30480931261844       -0.25113621770199
C            1.61701183537884       -0.54762361988930       -0.19089530486774
C            1.18765602957785       -1.01092502492816       -1.58926874014538
O            0.12445367367022       -1.92647398767683       -1.48481099344754
C            0.85128785131230        0.69480038197461        0.29552111009696
O           -0.48950818529573        0.28833559702021        0.50422061410572
C           -1.47824302091200        1.26393942937833        0.32039143305132
O           -2.08875238097273        1.14963916471070       -0.93426588351849
C           -2.65093719838852       -0.12332568086227       -1.23029075515531
C           -3.72476750344148       -0.14052128150749       -2.16581662056546
O           -3.65347696629952       -1.61491432760671       -4.65609767573729
C           -3.73103115980931       -0.61194370616247       -0.15684949223286
O           -4.05923543452839       -1.95308078586276       -0.24608519276256
C           -3.13739228945027       -0.32855453992763        1.25174993261983
O           -4.14089140253028       -0.48438551609309        2.21512258496015
C           -2.56150762666884        1.08113833513277        1.39729521898714
O           -1.99724970500738        1.27351566990717        2.66023639624896
C            1.44651664949860        1.28088294694714        1.58429444565735
O            0.90057529035828        2.56424810316201        1.76206890779300
C            2.97708477783219        1.36235172573187        1.50327904455300
O            3.45105824704774        1.68431797249480        2.78360067679771
H            5.31939106852122       -1.35439285088426       -0.44065929728622
H            5.49084112141202       -1.74502773702455        1.29498326975987
H            6.68725565531855       -0.68174865693598        0.49336102717638
H            3.32820004386224       -0.77316741687095        1.73003470271700
H            1.40783824291016       -1.36378547885272        0.51959735188972
H            2.06869996379721       -1.47421920005356       -2.04347445260883
H            0.89116743146915       -0.14407767295785       -2.19404068053249
H            0.09209409809460       -2.45864156114935       -2.29355694019696
H            0.89498435395638        1.47323763814748       -0.47882654207106
H           -1.06036959675343        2.27364088457744        0.37656667870951
H           -1.87569434926882       -0.89098285640746       -1.28523607840383
H           -4.10854681120111        0.87999183605556       -2.30806933255025
H           -3.76667264138604       -1.13991901430539       -3.80690548628172
H           -4.30926857006706       -2.31996275924989       -4.64666839357961
H           -4.67309014689918       -0.05137893907874       -0.23906025153149
H           -3.26616051840879       -2.49642369753766       -0.37570735355780
H           -2.31444700449812       -1.04057759103359        1.41532064250253
H           -4.53661522023454       -1.36663257476223        2.13282208479863
H           -3.35595797069849        1.82049640362919        1.20668348146238
H           -2.65614041971498        1.01772345476424        3.32686492701099
H            1.16902793179218        0.62972076810321        2.42612865829587
H            1.26149293406370        2.93965144790219        2.58010309145559
H            3.25204169180944        2.13780368147858        0.77259065388281
H            4.41895453448198        1.73292692823898        2.76265751367914
