48
-84.826961655571
C 5.196043 0.252225 -1.645200
O 4.334066 1.220589 -1.061550
C 3.470838 0.729989 -0.105031
O 2.478777 -0.047991 -0.745198
C 1.490936 -0.570805 0.124380
C 0.687289 -1.570211 -0.704976
O 1.436381 -2.710032 -1.021321
C 0.693075 0.592715 0.750199
O -0.307267 0.158799 1.651944
C -1.666252 0.521195 1.447608
O -2.032814 0.903423 0.165044
C -2.476636 -0.071379 -0.786429
C -3.158707 0.719545 -1.915306
O -2.249294 1.489988 -2.652652
C -3.442331 -1.102321 -0.189768
O -3.774570 -2.109022 -1.108042
C -2.848704 -1.693506 1.096087
O -3.746533 -2.584811 1.710516
C -2.581487 -0.548057 2.074502
O -2.017965 -0.988077 3.274598
C 1.670580 1.506625 1.509297
O 1.041319 2.642224 2.045171
C 2.853480 1.930696 0.622337
O 3.858841 2.526926 1.396565
H 4.626309 -0.473106 -2.229366
H 5.771911 -0.265158 -0.871845
H 5.863575 0.811824 -2.295140
H 4.005101 0.099996 0.638231
H 1.977384 -1.122862 0.947408
H 0.346274 -1.069108 -1.620953
H -0.155632 -1.919776 -0.108450
H 2.230734 -2.430295 -1.494483
H 0.230304 1.165406 -0.068113
H -1.814097 1.449653 2.034603
H -1.610922 -0.597236 -1.206108
H -3.944696 1.346275 -1.477557
H -3.608982 0.013916 -2.616085
H -1.891284 2.174163 -2.073687
H -4.393157 -0.616593 0.060493
H -2.973847 -2.539143 -1.440309
H -1.902157 -2.214838 0.875805
H -4.191129 -3.097101 1.018998
H -3.552978 -0.059690 2.270255
H -2.524797 -1.761233 3.565844
H 2.049219 0.956123 2.377993
H 0.610942 3.142272 1.337575
H 2.500189 2.628758 -0.155292
H 3.442672 3.179023 1.980888
