48
cell (100, -120) s_221 rnd213 xtb E -84.861274529
C 5.546099 1.013287 0.514261
O 4.857412 -0.049082 -0.139634
C 3.509351 0.169007 -0.355873
O 2.828186 0.204040 0.881373
C 1.429601 0.399621 0.767761
C 0.860292 0.417757 2.194968
O 0.994066 1.662238 2.823516
C 0.783124 -0.717671 -0.070714
O -0.574655 -0.418175 -0.343444
C -1.562418 -1.306242 0.113065
O -2.165486 -0.845513 1.292356
C -2.831819 0.407444 1.148923
C -3.427684 0.764719 2.517174
O -3.813358 2.108547 2.602902
C -3.910613 0.331876 0.059014
O -4.502880 1.598758 -0.073469
C -3.279510 -0.136567 -1.257074
O -4.299426 -0.236664 -2.221555
C -2.592016 -1.487442 -1.012801
O -2.018157 -1.995734 -2.186525
C 1.494022 -0.838215 -1.425965
O 0.937592 -1.930814 -2.111481
C 3.000869 -0.993821 -1.222493
O 3.603139 -1.001859 -2.488168
H 5.190089 1.126962 1.538001
H 5.407867 1.949261 -0.033525
H 6.592743 0.723229 0.509759
H 3.342297 1.129844 -0.888379
H 1.221508 1.363209 0.277710
H 1.357766 -0.374032 2.767217
H -0.210071 0.210801 2.156250
H 1.930750 1.843662 2.984690
H 0.867837 -1.671586 0.462618
H -1.123545 -2.276894 0.378605
H -2.107346 1.184260 0.864609
H -2.665340 0.607445 3.283733
H -4.274898 0.096093 2.722131
H -4.350254 2.323218 1.821024
H -4.669361 -0.411299 0.354907
H -5.060962 1.590390 -0.866722
H -2.522575 0.595750 -1.578297
H -3.966824 -0.767093 -2.961402
H -3.348876 -2.211224 -0.684585
H -1.069373 -1.773749 -2.222069
H 1.315581 0.087613 -1.995301
H 1.486684 -2.114172 -2.890631
H 3.205609 -1.928367 -0.680010
H 4.564308 -1.069167 -2.385822
