      -----------------------------------------------------------      
     |                   =====================                   |     
     |                           x T B                           |     
     |                   =====================                   |     
     |                         S. Grimme                         |     
     |          Mulliken Center for Theoretical Chemistry        |     
     |                    University of Bonn                     |     
      -----------------------------------------------------------      

   * xtb version 6.7.1 (edcfbbe) compiled by 'conda@5dfe00f5fb80' on 2026-06-10

   xtb is free software: you can redistribute it and/or modify it under
   the terms of the GNU Lesser General Public License as published by
   the Free Software Foundation, either version 3 of the License, or
   (at your option) any later version.
   
   xtb is distributed in the hope that it will be useful,
   but WITHOUT ANY WARRANTY; without even the implied warranty of
   MERCHANTABILITY or FITNESS FOR A PARTICULAR PURPOSE.  See the
   GNU Lesser General Public License for more details.
   
   Cite this work as:
   * C. Bannwarth, E. Caldeweyher, S. Ehlert, A. Hansen, P. Pracht,
     J. Seibert, S. Spicher, S. Grimme, WIREs Comput. Mol. Sci., 2020, 11,
     e01493. DOI: 10.1002/wcms.1493
   
   for GFN2-xTB:
   * C. Bannwarth, S. Ehlert and S. Grimme., J. Chem. Theory Comput., 2019,
     15, 1652-1671. DOI: 10.1021/acs.jctc.8b01176
   for GFN1-xTB:
   * S. Grimme, C. Bannwarth, P. Shushkov, J. Chem. Theory Comput., 2017,
     13, 1989-2009. DOI: 10.1021/acs.jctc.7b00118
   for GFN0-xTB:
   * P. Pracht, E. Caldeweyher, S. Ehlert, S. Grimme, ChemRxiv, 2019, preprint.
     DOI: 10.26434/chemrxiv.8326202.v1
   for GFN-FF:
   * S. Spicher and S. Grimme, Angew. Chem. Int. Ed., 2020, 59, 15665-15673.
     DOI: 10.1002/anie.202004239
   
   for ALPB and GBSA implicit solvation:
   * S. Ehlert, M. Stahn, S. Spicher, S. Grimme, J. Chem. Theory Comput.,
     2021, 17, 4250-4261. DOI: 10.1021/acs.jctc.1c00471
   
   for ddCOSMO and CPCM-X implicit solvation:
   * M. Stahn, S. Ehlert, S. Grimme, J. Phys. Chem. A,
     2023, XX, XXXX-XXXX. DOI: 10.1021/acs.jpca.3c04382
   
   for DFT-D4:
   * E. Caldeweyher, C. Bannwarth and S. Grimme, J. Chem. Phys., 2017,
     147, 034112. DOI: 10.1063/1.4993215
   * E. Caldeweyher, S. Ehlert, A. Hansen, H. Neugebauer, S. Spicher,
     C. Bannwarth and S. Grimme, J. Chem. Phys., 2019, 150, 154122.
     DOI: 10.1063/1.5090222
   * E. Caldeweyher, J.-M. Mewes, S. Ehlert and S. Grimme, Phys. Chem. Chem. Phys.
     2020, 22, 8499-8512. DOI: 10.1039/D0CP00502A
   
   for sTDA-xTB:
   * S. Grimme and C. Bannwarth, J. Chem. Phys., 2016, 145, 054103.
     DOI: 10.1063/1.4959605
   
   in the mass-spec context:
   * V. Asgeirsson, C. Bauer and S. Grimme, Chem. Sci., 2017, 8, 4879.
     DOI: 10.1039/c7sc00601b
   * J. Koopman and S. Grimme, ACS Omega 2019, 4, 12, 15120-15133.
     DOI: 10.1021/acsomega.9b02011
   
   for metadynamics refer to:
   * S. Grimme, J. Chem. Theory Comput., 2019, 155, 2847-2862
     DOI: 10.1021/acs.jctc.9b00143
   
   for SPH calculations refer to:
   * S. Spicher and S. Grimme, J. Chem. Theory Comput., 2021, 17, 1701-1714
     DOI: 10.1021/acs.jctc.0c01306
   
   for ONIOM refer to:
   * C. Plett, A. Katbashev, S. Ehlert, S. Grimme, M. Bursch,
     Phys. Chem. Chem. Phys., 2023, 25, 17860-17868. DOI: 10.1039/D3CP02178E
   
   for DIPRO refer to:
   * J. Kohn, N. Gildemeister, S. Grimme, D. Fazzi, A. Hansen,
     J. Chem. Phys., 2023, just accepted.
   
   for PTB refer to:
   * S. Grimme, M. Mueller, A. Hansen, J. Chem. Phys., 2023, 158, 124111.
     DOI: 10.1063/5.0137838
   
   with help from (in alphabetical order)
   P. Atkinson, C. Bannwarth, F. Bohle, G. Brandenburg, E. Caldeweyher
   M. Checinski, S. Dohm, S. Ehlert, S. Ehrlich, I. Gerasimov, C. Hölzer
   A. Katbashev, J. Kohn, J. Koopman, C. Lavigne, S. Lehtola, F. März, M. Müller,
   F. Musil, H. Neugebauer, J. Pisarek, C. Plett, P. Pracht, F. Pultar,
   J. Seibert, P. Shushkov, S. Spicher, M. Stahn, M. Steiner, T. Strunk,
   J. Stückrath, T. Rose, and J. Unsleber
   
 * started run on 2026/09/21 at 15:47:34.035     
   ID    Z sym.   atoms
    1    6 C      1, 3, 5, 6, 8, 10, 12, 13, 15, 17, 19, 21, 23
    2    8 O      2, 4, 7, 9, 11, 14, 16, 18, 20, 22, 24
    3    1 H      25-48
constraining angle 11 10 9 8 to   20.0000000°, actual value:   20.7611258°
constraining angle 10 9 8 5 to -120.0000000°, actual value: -122.7375469°

           -------------------------------------------------
          |                Calculation Setup                |
           -------------------------------------------------

          program call               : /media/aldo/Aldo/envs/chem/bin/xtb start.xyz --gfn 2 --alpb water --opt normal --input c.inp
          coordinate file            : start.xyz
          omp threads                :                     1


           -------------------------------------------------
          |                 G F N 2 - x T B                 |
           -------------------------------------------------

        Reference                      10.1021/acs.jctc.8b01176
      * Hamiltonian:
        H0-scaling (s, p, d)           1.850000    2.230000    2.230000
        zeta-weighting                 0.500000
      * Dispersion:
        s8                             2.700000
        a1                             0.520000
        a2                             5.000000
        s9                             5.000000
      * Repulsion:
        kExp                           1.500000    1.000000
        rExp                           1.000000
      * Coulomb:
        alpha                          2.000000
        third order                    shell-resolved
        anisotropic                    true
        a3                             3.000000
        a5                             4.000000
        cn-shift                       1.200000
        cn-exp                         4.000000
        max-rad                        5.000000

      * Solvation model:               ALPB
        Solvent                        water
        Parameter file                 internal GFN2-xTB/ALPB
        Dielectric constant                8.0200E+01
        Reference state                gsolv [1 M gas/solution]
        Free energy shift                  1.0808E-03 Eh       6.7819E-01 kcal/mol
        Temperature                        2.9815E+02 K
        Density                            1.0000E+00 kg/L
        Solvent mass                       1.8000E+01 g/mol
        Interaction kernel             P16
        Born radius scaling (c1)           1.4744E+00
        Born radii integrator          GBOBC
        Born offset                        0.0000E+00 a0       0.0000E+00 AA
        H-bond correction              true
        Ion screening                  false
        Surface tension                    1.0000E-05 Eh       1.5569E+01 dyn/cm
        Grid points                               230 per atom

          ...................................................
          :                      SETUP                      :
          :.................................................:
          :  # basis functions                 120          :
          :  # atomic orbitals                 120          :
          :  # shells                           72          :
          :  # electrons                       142          :
          :  max. iterations                   250          :
          :  Hamiltonian                  GFN2-xTB          :
          :  restarted?                      false          :
          :  GBSA solvation                   true          :
          :  PC potential                    false          :
          :  electronic temp.          300.0000000     K    :
          :  accuracy                    1.0000000          :
          :  -> integral cutoff          0.2500000E+02      :
          :  -> integral neglect         0.1000000E-07      :
          :  -> SCF convergence          0.1000000E-05 Eh   :
          :  -> wf. convergence          0.1000000E-03 e    :
          :  Broyden damping             0.4000000          :
          :  net charge                          0          :
          :  unpaired electrons                  0          :
          ...................................................

 iter      E             dE          RMSdq      gap      omega  full diag
   1    -85.3594127 -0.853594E+02  0.473E+00    9.48       0.0  T
   2    -85.4529769 -0.935642E-01  0.249E+00    9.22       1.0  T
   3    -85.4566110 -0.363417E-02  0.710E-01    9.29       1.0  T
   4    -85.4574742 -0.863197E-03  0.170E-01    9.29       1.0  T
   5    -85.4576088 -0.134564E-03  0.808E-02    9.31       1.0  T
   6    -85.4576367 -0.278811E-04  0.199E-02    9.31       1.0  T
   7    -85.4576385 -0.179587E-05  0.766E-03    9.31       1.9  T
   8    -85.4576389 -0.412519E-06  0.246E-03    9.31       5.9  T
   9    -85.4576389 -0.379992E-07  0.115E-03    9.31      12.5  T
  10    -85.4576389 -0.676982E-08  0.393E-04    9.31      36.7  T
  11    -85.4576389 -0.124497E-08  0.118E-04    9.31     122.5  T

   *** convergence criteria satisfied after 11 iterations ***

         #    Occupation            Energy/Eh            Energy/eV
      -------------------------------------------------------------
         1        2.0000           -0.7408450             -20.1594
       ...           ...                  ...                  ...
        65        2.0000           -0.4341280             -11.8132
        66        2.0000           -0.4288863             -11.6706
        67        2.0000           -0.4261120             -11.5951
        68        2.0000           -0.4252095             -11.5705
        69        2.0000           -0.4205908             -11.4449
        70        2.0000           -0.4163743             -11.3301
        71        2.0000           -0.4044139             -11.0047 (HOMO)
        72                         -0.0621404              -1.6909 (LUMO)
        73                         -0.0428642              -1.1664
        74                         -0.0198601              -0.5404
        75                         -0.0088643              -0.2412
        76                         -0.0008592              -0.0234
       ...                                ...                  ...
       120                          0.3134007               8.5281
      -------------------------------------------------------------
                  HL-Gap            0.3422735 Eh            9.3137 eV
             Fermi-level           -0.2332772 Eh           -6.3478 eV

 SCC (total)                   0 d,  0 h,  0 min,  0.377 sec
 SCC setup                      ...        0 min,  0.006 sec (  1.624%)
 Dispersion                     ...        0 min,  0.003 sec (  0.754%)
 classical contributions        ...        0 min,  0.001 sec (  0.182%)
 integral evaluation            ...        0 min,  0.046 sec ( 12.091%)
 iterations                     ...        0 min,  0.168 sec ( 44.685%)
 molecular gradient             ...        0 min,  0.152 sec ( 40.239%)
 printout                       ...        0 min,  0.002 sec (  0.412%)

         :::::::::::::::::::::::::::::::::::::::::::::::::::::
         ::                     SUMMARY                     ::
         :::::::::::::::::::::::::::::::::::::::::::::::::::::
         :: total energy             -84.838787785246 Eh    ::
         :: total w/o Gsasa/hb       -84.814050459906 Eh    ::
         :: gradient norm              0.000398892365 Eh/a0 ::
         :: HOMO-LUMO gap              9.313735219587 eV    ::
         ::.................................................::
         :: SCC energy               -85.456567733713 Eh    ::
         :: -> isotropic ES            0.290772302220 Eh    ::
         :: -> anisotropic ES         -0.009912817898 Eh    ::
         :: -> anisotropic XC         -0.016178894616 Eh    ::
         :: -> dispersion             -0.046309321199 Eh    ::
         :: -> Gsolv                  -0.056350452889 Eh    ::
         ::    -> Gelec               -0.031613127549 Eh    ::
         ::    -> Gsasa                0.007975810133 Eh    ::
         ::    -> Ghb                 -0.033793895171 Eh    ::
         ::    -> Gshift               0.001080759698 Eh    ::
         :: repulsion energy           0.617165227379 Eh    ::
         :: add. restraining           0.000614721087 Eh    ::
         :: total charge              -0.000000000000 e     ::
         :::::::::::::::::::::::::::::::::::::::::::::::::::::

      ----------------------------------------------------------- 
     |                   =====================                   |
     |                        A N C O P T                        |
     |                   =====================                   |
     |               Approximate Normal Coordinate               |
     |                Rational Function Optimizer                |
      ----------------------------------------------------------- 
      ----------------------------------------------------------- 
     |                   =====================                   |
     |                        A N C O P T                        |
     |                   =====================                   |
     |               Approximate Normal Coordinate               |
     |                Rational Function Optimizer                |
      ----------------------------------------------------------- 

          ...................................................
          :                      SETUP                      :
          :.................................................:
          :   optimization level            normal          :
          :   max. optcycles                   200          :
          :   ANC micro-cycles                  20          :
          :   degrees of freedom               138          :
          :.................................................:
          :   RF solver                   davidson          :
          :   write xtbopt.log                true          :
          :   linear?                        false          :
          :   energy convergence         0.5000000E-05 Eh   :
          :   grad. convergence          0.1000000E-02 Eh/α :
          :   maxmium RF displ.          1.0000000          :
          :   Hlow (freq-cutoff)         0.1000000E-01      :
          :   Hmax (freq-cutoff)         5.0000000          :
          :   S6 in model hess.         20.0000000          :
          ...................................................

generating ANC from exact Hessian ...
Using Lindh-Hessian (1995)
 Shifting diagonal of input Hessian by    9.6512580449090255E-003
 Lowest  eigenvalues of input Hessian
    0.000000    0.000000    0.000000    0.000000    0.000000    0.000000
    0.010000    0.010176    0.010591    0.011054    0.011912    0.012442
    0.013552    0.013674    0.014494    0.014742    0.015087    0.015363
 Highest eigenvalues
    1.535529    1.552572    1.574327    1.677668    1.715342    1.909473


........................................................................
.............................. CYCLE    1 ..............................
........................................................................

 iter      E             dE          RMSdq      gap      omega  full diag
   1    -85.4576389 -0.854576E+02  0.607E-05    9.31       0.0  T
   2    -85.4576389 -0.102744E-10  0.399E-05    9.31     361.5  T
   3    -85.4576389 -0.697753E-11  0.101E-05    9.31    1434.3  T
     SCC iter.                  ...        0 min,  0.049 sec
     gradient                   ...        0 min,  0.144 sec
 * total energy  :   -84.8387878 Eh     change       -0.9417533E-10 Eh
   gradient norm :     0.0003978 Eh/α   predicted     0.0000000E+00 (-100.00%)
   displ. norm   :     0.0164078 α      lambda       -0.1732591E-06
   maximum displ.:     0.0110325 α      in ANC's #1, #2, #12, ...

   *** GEOMETRY OPTIMIZATION CONVERGED AFTER 1 ITERATIONS ***

------------------------------------------------------------------------
 total energy gain   :        -0.0000000 Eh       -0.0000 kcal/mol
 total RMSD          :         0.0000000 a0        0.0000 Å
 total power (kW/mol):        -0.0000002 (step)   -0.0000 (real)
------------------------------------------------------------------------

 ANCopt (total)                0 d,  0 h,  0 min,  0.439 sec
 optimizer setup                ...        0 min,  0.000 sec (  0.056%)
 model hessian                  ...        0 min,  0.179 sec ( 40.657%)
 ANC generation                 ...        0 min,  0.011 sec (  2.425%)
 coordinate transformation      ...        0 min,  0.000 sec (  0.020%)
 single point calculation       ...        0 min,  0.248 sec ( 56.347%)
 optimization log               ...        0 min,  0.001 sec (  0.120%)
 hessian update                 ...        0 min,  0.000 sec (  0.001%)
 rational function              ...        0 min,  0.000 sec (  0.076%)

================
 final structure:
================
48
 xtb: 6.7.1 (edcfbbe)
C            5.18646200000000        0.24505100000000       -1.70459200000000
O            4.31933400000000        1.21480100000000       -1.12478600000000
C            3.47113700000000        0.73293100000000       -0.14805500000000
O            2.47828000000000       -0.06288700000000       -0.76425200000000
C            1.49909600000000       -0.56498100000000        0.12977100000000
C            0.67740200000000       -1.58545800000000       -0.65430900000000
O            1.39061600000000       -2.76455400000000       -0.90734000000000
C            0.70404500000000        0.61309800000000        0.73048800000000
O           -0.28809900000000        0.19145300000000        1.64965700000000
C           -1.65312400000000        0.54034800000000        1.44652500000000
O           -2.02597100000000        0.89258200000000        0.15763400000000
C           -2.48681100000000       -0.10280500000000       -0.76615200000000
C           -3.17001900000000        0.65942200000000       -1.91346100000000
O           -2.25763500000000        1.36673300000000       -2.71089800000000
C           -3.46221400000000       -1.10145200000000       -0.13211800000000
O           -3.83154900000000       -2.11675000000000       -1.02659800000000
C           -2.85665100000000       -1.68082900000000        1.15325500000000
O           -3.76130600000000       -2.53885600000000        1.80528200000000
C           -2.55042300000000       -0.52416400000000        2.10766400000000
O           -1.94187200000000       -0.95094000000000        3.29141300000000
C            1.68019200000000        1.54993900000000        1.46310800000000
O            1.04871300000000        2.69983400000000        1.96538400000000
C            2.86331200000000        1.94683900000000        0.56520200000000
O            3.88388100000000        2.54190000000000        1.32063200000000
H            4.61462700000000       -0.49085200000000       -2.27154400000000
H            5.77246000000000       -0.25426300000000       -0.92837900000000
H            5.83984500000000        0.80514800000000       -2.36709500000000
H            4.02088700000000        0.12061300000000        0.59632200000000
H            1.99556700000000       -1.09270900000000        0.96153300000000
H            0.35054700000000       -1.12289200000000       -1.59419200000000
H           -0.17336200000000       -1.88013100000000       -0.03985400000000
H            2.17217500000000       -2.55328600000000       -1.43682700000000
H            0.22857600000000        1.16135000000000       -0.09559100000000
H           -1.79978200000000        1.47814800000000        2.01593900000000
H           -1.63060100000000       -0.64993200000000       -1.17606900000000
H           -3.92659800000000        1.32775000000000       -1.48888800000000
H           -3.65578500000000       -0.06535200000000       -2.56948400000000
H           -1.90842600000000        2.11098100000000       -2.20255500000000
H           -4.39686300000000       -0.59003700000000        0.12642400000000
H           -3.04436500000000       -2.57164200000000       -1.36224400000000
H           -1.92702000000000       -2.22766000000000        0.92658300000000
H           -4.21670600000000       -3.07810800000000        1.13944900000000
H           -3.51325800000000       -0.03461600000000        2.33400500000000
H           -2.45635300000000       -1.69917800000000        3.63595100000000
H            2.05530900000000        1.02382000000000        2.34787300000000
H            0.67549000000000        3.21816300000000        1.23586100000000
H            2.51557800000000        2.63538800000000       -0.22201900000000
H            3.49125800000000        3.22804300000000        1.88483200000000

 Bond Distances (Angstroems)
 ---------------------------
C1-O2=1.4243         C1-H25=1.0909        C1-H26=1.0933        C1-H27=1.0861        O2-C1=1.4243         O2-C3=1.3804         
C3-O2=1.3804         C3-O4=1.4138         C3-C23=1.5335        C3-H28=1.1096        O4-C3=1.4138         O4-C5=1.4178         
C5-O4=1.4178         C5-C6=1.5269         C5-C8=1.5430         C5-H29=1.1031        C6-C5=1.5269         C6-O7=1.4011         
C6-H30=1.0974        C6-H31=1.0900        O7-C6=1.4011         O7-H32=0.9674        C8-C5=1.5430         C8-O9=1.4167         
C8-C21=1.5386        C8-H33=1.0996        O9-C8=1.4167         O9-C10=1.4235        C10-O9=1.4235        C10-O11=1.3872       
C10-C19=1.5412       C10-H34=1.1069       O11-C10=1.3872       O11-C12=1.4341       C12-O11=1.4341       C12-C13=1.5376       
C12-C15=1.5332       C12-H35=1.0957       C13-C12=1.5376       C13-O14=1.4031       C13-H36=1.0951       C13-H37=1.0916       
O14-C13=1.4031       O14-H38=0.9666       C15-C12=1.5332       C15-O16=1.4026       C15-C17=1.5345       C15-H39=1.0963       
O16-C15=1.4026       O16-H40=0.9691       C17-C15=1.5345       C17-O18=1.4070       C17-C19=1.5305       C17-H41=1.1021       
O18-C17=1.4070       O18-H42=0.9703       C19-C10=1.5412       C19-C17=1.5305       C19-O20=1.3978       C19-H43=1.1036       
O20-C19=1.3978       O20-H44=0.9712       C21-C8=1.5386        C21-O22=1.4047       C21-C23=1.5374       C21-H45=1.0956       
O22-C21=1.4047       O22-H46=0.9696       C23-C3=1.5335        C23-C21=1.5374       C23-O24=1.4023       C23-H47=1.1022       
O24-C23=1.4023       O24-H48=0.9712       H25-C1=1.0909        H26-C1=1.0933        H27-C1=1.0861        H28-C3=1.1096        
H29-C5=1.1031        H30-C6=1.0974        H31-C6=1.0900        H32-O7=0.9674        H33-C8=1.0996        H34-C10=1.1069       
H35-C12=1.0957       H36-C13=1.0951       H37-C13=1.0916       H38-O14=0.9666       H39-C15=1.0963       H40-O16=0.9691       
H41-C17=1.1021       H42-O18=0.9703       H43-C19=1.1036       H44-O20=0.9712       H45-C21=1.0956       H46-O22=0.9696       
H47-C23=1.1022       H48-O24=0.9712       
 C  H  Rav=1.0976 sigma=0.0062  Rmin=1.0861  Rmax=1.1096    17
 C  C  Rav=1.5356 sigma=0.0046  Rmin=1.5269  Rmax=1.5430    10
 O  H  Rav=0.9694 sigma=0.0017  Rmin=0.9666  Rmax=0.9712     7
 O  C  Rav=1.4078 sigma=0.0137  Rmin=1.3804  Rmax=1.4341    15

 selected bond angles (degree)
 --------------------
H25-C1-O2=110.59               H26-C1-O2=110.38               H26-C1-H25=109.99              H27-C1-O2=105.28               
H27-C1-H25=110.26              H27-C1-H26=110.25              C3-O2-C1=115.12                O4-C3-O2=108.64                
C23-C3-O2=107.24               C23-C3-O4=111.71               H28-C3-O2=111.28               H28-C3-O4=109.25               
H28-C3-C23=108.73              C5-O4-C3=114.17                C6-C5-O4=106.53                C8-C5-O4=109.33                
C8-C5-C6=115.65                H29-C5-O4=109.51               H29-C5-C6=108.04               H29-C5-C8=107.67               
O7-C6-C5=112.41                H30-C6-C5=108.57               H30-C6-O7=110.59               H31-C6-C5=108.13               
H31-C6-O7=105.76               H31-C6-H30=111.36              H32-O7-C6=109.05               O9-C8-C5=112.72                
C21-C8-C5=108.87               C21-C8-O9=108.46               H33-C8-C5=108.12               H33-C8-O9=109.45               
H33-C8-C21=109.18              C10-O9-C8=120.40               O11-C10-O9=116.91              C19-C10-O9=109.13              
C19-C10-O11=114.67             H34-C10-O9=105.15              H34-C10-O11=103.13             H34-C10-C19=106.70             

 selected dihedral angles (degree)
 ---------------------------------
C3-O2-C1-H25= 66.41           C3-O2-C1-H26=304.46           C3-O2-C1-H27=185.49           O4-C3-O2-C1=288.26            
C23-C3-O2-C1=167.37           H28-C3-O2-C1= 48.57           C5-O4-C3-O2=183.04            C5-O4-C3-C23=301.13           
C5-O4-C3-H28= 61.48           C6-C5-O4-C3=189.95            C8-C5-O4-C3= 64.31            H29-C5-O4-C3=306.56           
O7-C6-C5-O4= 71.86            O7-C6-C5-C8=193.57            O7-C6-C5-H29=314.27           H30-C6-C5-O4=309.19           
H30-C6-C5-C8= 70.89           H30-C6-C5-H29=191.60          H31-C6-C5-O4=188.23           H31-C6-C5-C8=309.94           
H31-C6-C5-H29= 70.64          H32-O7-C6-C5=299.03           H32-O7-C6-H30= 60.56          H32-O7-C6-H31=181.24          
O9-C8-C5-O4=180.67            O9-C8-C5-C6= 60.47            O9-C8-C5-H29=299.57           C21-C8-C5-O4=301.05           
C21-C8-C5-C6=180.85           C21-C8-C5-H29= 59.95          H33-C8-C5-O4= 59.54           H33-C8-C5-C6=299.35           
H33-C8-C5-H29=178.44          C10-O9-C8-C5=237.26           C10-O9-C8-C21=116.64          C10-O9-C8-H33=357.62          
O11-C10-O9-C8= 20.76          C19-C10-O9-C8=152.95          H34-C10-O9-C8=267.10          
           -------------------------------------------------
          |                Final Singlepoint                |
           -------------------------------------------------

          ...................................................
          :                      SETUP                      :
          :.................................................:
          :  # basis functions                 120          :
          :  # atomic orbitals                 120          :
          :  # shells                           72          :
          :  # electrons                       142          :
          :  max. iterations                   250          :
          :  Hamiltonian                  GFN2-xTB          :
          :  restarted?                      false          :
          :  GBSA solvation                   true          :
          :  PC potential                    false          :
          :  electronic temp.          300.0000000     K    :
          :  accuracy                    1.0000000          :
          :  -> integral cutoff          0.2500000E+02      :
          :  -> integral neglect         0.1000000E-07      :
          :  -> SCF convergence          0.1000000E-05 Eh   :
          :  -> wf. convergence          0.1000000E-03 e    :
          :  Broyden damping             0.4000000          :
          :  net charge                          0          :
          :  unpaired electrons                  0          :
          ...................................................

 iter      E             dE          RMSdq      gap      omega  full diag
   1    -85.4576389 -0.854576E+02  0.524E-06    9.31       0.0  T
   2    -85.4576389 -0.852651E-13  0.352E-06    9.31    4096.7  T
   3    -85.4576389  0.852651E-13  0.133E-06    9.31   10860.2  T

   *** convergence criteria satisfied after 3 iterations ***

         #    Occupation            Energy/Eh            Energy/eV
      -------------------------------------------------------------
         1        2.0000           -0.7408469             -20.1595
       ...           ...                  ...                  ...
        65        2.0000           -0.4341288             -11.8132
        66        2.0000           -0.4288872             -11.6706
        67        2.0000           -0.4261126             -11.5951
        68        2.0000           -0.4252100             -11.5706
        69        2.0000           -0.4205921             -11.4449
        70        2.0000           -0.4163756             -11.3302
        71        2.0000           -0.4044154             -11.0047 (HOMO)
        72                         -0.0621421              -1.6910 (LUMO)
        73                         -0.0428659              -1.1664
        74                         -0.0198613              -0.5405
        75                         -0.0088651              -0.2412
        76                         -0.0008601              -0.0234
       ...                                ...                  ...
       120                          0.3133993               8.5280
      -------------------------------------------------------------
                  HL-Gap            0.3422733 Eh            9.3137 eV
             Fermi-level           -0.2332787 Eh           -6.3478 eV

 SCC (total)                   0 d,  0 h,  0 min,  0.286 sec
 SCC setup                      ...        0 min,  0.005 sec (  1.823%)
 Dispersion                     ...        0 min,  0.001 sec (  0.517%)
 classical contributions        ...        0 min,  0.001 sec (  0.237%)
 integral evaluation            ...        0 min,  0.042 sec ( 14.720%)
 iterations                     ...        0 min,  0.049 sec ( 17.299%)
 molecular gradient             ...        0 min,  0.186 sec ( 64.963%)
 printout                       ...        0 min,  0.001 sec (  0.425%)

         :::::::::::::::::::::::::::::::::::::::::::::::::::::
         ::                     SUMMARY                     ::
         :::::::::::::::::::::::::::::::::::::::::::::::::::::
         :: total energy             -84.838787785342 Eh    ::
         :: total w/o Gsasa/hb       -84.814049974120 Eh    ::
         :: gradient norm              0.000398695026 Eh/a0 ::
         :: HOMO-LUMO gap              9.313730904971 eV    ::
         ::.................................................::
         :: SCC energy               -85.456567733809 Eh    ::
         :: -> isotropic ES            0.290773435861 Eh    ::
         :: -> anisotropic ES         -0.009913684068 Eh    ::
         :: -> anisotropic XC         -0.016178978360 Eh    ::
         :: -> dispersion             -0.046309346696 Eh    ::
         :: -> Gsolv                  -0.056351533692 Eh    ::
         ::    -> Gelec               -0.031613722469 Eh    ::
         ::    -> Gsasa                0.007975810133 Eh    ::
         ::    -> Ghb                 -0.033794381053 Eh    ::
         ::    -> Gshift               0.001080759698 Eh    ::
         :: repulsion energy           0.617165227379 Eh    ::
         :: add. restraining           0.000614721087 Eh    ::
         :: total charge               0.000000000000 e     ::
         :::::::::::::::::::::::::::::::::::::::::::::::::::::

========================================================================
 RELAXED SCAN
------------------------------------------------------------------------
 output written to xtbscan.log
 scaning constraint 2
... step 1 ...
      ----------------------------------------------------------- 
     |                   =====================                   |
     |                        A N C O P T                        |
     |                   =====================                   |
     |               Approximate Normal Coordinate               |
     |                Rational Function Optimizer                |
      ----------------------------------------------------------- 
 current energy:         -84.83878779
    bias energy:           0.00061472
unbiased energy:         -84.83940251
... step 2 ...
      ----------------------------------------------------------- 
     |                   =====================                   |
     |                        A N C O P T                        |
     |                   =====================                   |
     |               Approximate Normal Coordinate               |
     |                Rational Function Optimizer                |
      ----------------------------------------------------------- 
 current energy:         -84.83452383
    bias energy:           0.00065215
unbiased energy:         -84.83517598
... step 3 ...
      ----------------------------------------------------------- 
     |                   =====================                   |
     |                        A N C O P T                        |
     |                   =====================                   |
     |               Approximate Normal Coordinate               |
     |                Rational Function Optimizer                |
      ----------------------------------------------------------- 
 current energy:         -84.83055522
    bias energy:           0.00048319
unbiased energy:         -84.83103841
... step 4 ...
      ----------------------------------------------------------- 
     |                   =====================                   |
     |                        A N C O P T                        |
     |                   =====================                   |
     |               Approximate Normal Coordinate               |
     |                Rational Function Optimizer                |
      ----------------------------------------------------------- 
 current energy:         -84.83567047
    bias energy:           0.00033243
unbiased energy:         -84.83600290
... step 5 ...
      ----------------------------------------------------------- 
     |                   =====================                   |
     |                        A N C O P T                        |
     |                   =====================                   |
     |               Approximate Normal Coordinate               |
     |                Rational Function Optimizer                |
      ----------------------------------------------------------- 
 current energy:         -84.83197586
    bias energy:           0.00080666
unbiased energy:         -84.83278252
... step 6 ...
      ----------------------------------------------------------- 
     |                   =====================                   |
     |                        A N C O P T                        |
     |                   =====================                   |
     |               Approximate Normal Coordinate               |
     |                Rational Function Optimizer                |
      ----------------------------------------------------------- 
 current energy:         -84.82692244
    bias energy:           0.00130294
unbiased energy:         -84.82822539
... step 7 ...
      ----------------------------------------------------------- 
     |                   =====================                   |
     |                        A N C O P T                        |
     |                   =====================                   |
     |               Approximate Normal Coordinate               |
     |                Rational Function Optimizer                |
      ----------------------------------------------------------- 
 current energy:         -84.84199876
    bias energy:           0.00018837
unbiased energy:         -84.84218713
... step 8 ...
      ----------------------------------------------------------- 
     |                   =====================                   |
     |                        A N C O P T                        |
     |                   =====================                   |
     |               Approximate Normal Coordinate               |
     |                Rational Function Optimizer                |
      ----------------------------------------------------------- 
 current energy:         -84.84486533
    bias energy:           0.00013181
unbiased energy:         -84.84499714
... step 9 ...
      ----------------------------------------------------------- 
     |                   =====================                   |
     |                        A N C O P T                        |
     |                   =====================                   |
     |               Approximate Normal Coordinate               |
     |                Rational Function Optimizer                |
      ----------------------------------------------------------- 
 current energy:         -84.84268099
    bias energy:           0.00021328
unbiased energy:         -84.84289428
... step 10 ...
      ----------------------------------------------------------- 
     |                   =====================                   |
     |                        A N C O P T                        |
     |                   =====================                   |
     |               Approximate Normal Coordinate               |
     |                Rational Function Optimizer                |
      ----------------------------------------------------------- 
 current energy:         -84.84241100
    bias energy:           0.00017647
unbiased energy:         -84.84258747
... step 11 ...
      ----------------------------------------------------------- 
     |                   =====================                   |
     |                        A N C O P T                        |
     |                   =====================                   |
     |               Approximate Normal Coordinate               |
     |                Rational Function Optimizer                |
      ----------------------------------------------------------- 
 current energy:         -84.84151721
    bias energy:           0.00012352
unbiased energy:         -84.84164073
... step 12 ...
      ----------------------------------------------------------- 
     |                   =====================                   |
     |                        A N C O P T                        |
     |                   =====================                   |
     |               Approximate Normal Coordinate               |
     |                Rational Function Optimizer                |
      ----------------------------------------------------------- 
 current energy:         -84.84004814
    bias energy:           0.00010201
unbiased energy:         -84.84015015
... step 13 ...
      ----------------------------------------------------------- 
     |                   =====================                   |
     |                        A N C O P T                        |
     |                   =====================                   |
     |               Approximate Normal Coordinate               |
     |                Rational Function Optimizer                |
      ----------------------------------------------------------- 
 current energy:         -84.84123545
    bias energy:           0.00010281
unbiased energy:         -84.84133826
... step 14 ...
      ----------------------------------------------------------- 
     |                   =====================                   |
     |                        A N C O P T                        |
     |                   =====================                   |
     |               Approximate Normal Coordinate               |
     |                Rational Function Optimizer                |
      ----------------------------------------------------------- 
 current energy:         -84.84179641
    bias energy:           0.00000304
unbiased energy:         -84.84179944
... step 15 ...
      ----------------------------------------------------------- 
     |                   =====================                   |
     |                        A N C O P T                        |
     |                   =====================                   |
     |               Approximate Normal Coordinate               |
     |                Rational Function Optimizer                |
      ----------------------------------------------------------- 
 current energy:         -84.84204976
    bias energy:           0.00000148
unbiased energy:         -84.84205124
... step 16 ...
      ----------------------------------------------------------- 
     |                   =====================                   |
     |                        A N C O P T                        |
     |                   =====================                   |
     |               Approximate Normal Coordinate               |
     |                Rational Function Optimizer                |
      ----------------------------------------------------------- 
 current energy:         -84.84619849
    bias energy:           0.00042222
unbiased energy:         -84.84662070
... step 17 ...
      ----------------------------------------------------------- 
     |                   =====================                   |
     |                        A N C O P T                        |
     |                   =====================                   |
     |               Approximate Normal Coordinate               |
     |                Rational Function Optimizer                |
      ----------------------------------------------------------- 
 current energy:         -84.84892991
    bias energy:           0.00032593
unbiased energy:         -84.84925584
... step 18 ...
      ----------------------------------------------------------- 
     |                   =====================                   |
     |                        A N C O P T                        |
     |                   =====================                   |
     |               Approximate Normal Coordinate               |
     |                Rational Function Optimizer                |
      ----------------------------------------------------------- 
 current energy:         -84.85057710
    bias energy:           0.00007944
unbiased energy:         -84.85065654
... step 19 ...
      ----------------------------------------------------------- 
     |                   =====================                   |
     |                        A N C O P T                        |
     |                   =====================                   |
     |               Approximate Normal Coordinate               |
     |                Rational Function Optimizer                |
      ----------------------------------------------------------- 
 current energy:         -84.85037412
    bias energy:           0.00006276
unbiased energy:         -84.85043688
... step 20 ...
      ----------------------------------------------------------- 
     |                   =====================                   |
     |                        A N C O P T                        |
     |                   =====================                   |
     |               Approximate Normal Coordinate               |
     |                Rational Function Optimizer                |
      ----------------------------------------------------------- 
 current energy:         -84.84817014
    bias energy:           0.00034002
unbiased energy:         -84.84851016
... step 21 ...
      ----------------------------------------------------------- 
     |                   =====================                   |
     |                        A N C O P T                        |
     |                   =====================                   |
     |               Approximate Normal Coordinate               |
     |                Rational Function Optimizer                |
      ----------------------------------------------------------- 
 current energy:         -84.84476232
    bias energy:           0.00043710
unbiased energy:         -84.84519942
... step 22 ...
      ----------------------------------------------------------- 
     |                   =====================                   |
     |                        A N C O P T                        |
     |                   =====================                   |
     |               Approximate Normal Coordinate               |
     |                Rational Function Optimizer                |
      ----------------------------------------------------------- 
 current energy:         -84.84204977
    bias energy:           0.00019417
unbiased energy:         -84.84224394
... step 23 ...
      ----------------------------------------------------------- 
     |                   =====================                   |
     |                        A N C O P T                        |
     |                   =====================                   |
     |               Approximate Normal Coordinate               |
     |                Rational Function Optimizer                |
      ----------------------------------------------------------- 
 current energy:         -84.83975201
    bias energy:           0.00017536
unbiased energy:         -84.83992736
... step 24 ...
      ----------------------------------------------------------- 
     |                   =====================                   |
     |                        A N C O P T                        |
     |                   =====================                   |
     |               Approximate Normal Coordinate               |
     |                Rational Function Optimizer                |
      ----------------------------------------------------------- 
 current energy:         -84.83784530
    bias energy:           0.00011030
unbiased energy:         -84.83795560
... step 25 ...
      ----------------------------------------------------------- 
     |                   =====================                   |
     |                        A N C O P T                        |
     |                   =====================                   |
     |               Approximate Normal Coordinate               |
     |                Rational Function Optimizer                |
      ----------------------------------------------------------- 
 current energy:         -84.84230161
    bias energy:           0.00030714
unbiased energy:         -84.84260875
... step 26 ...
      ----------------------------------------------------------- 
     |                   =====================                   |
     |                        A N C O P T                        |
     |                   =====================                   |
     |               Approximate Normal Coordinate               |
     |                Rational Function Optimizer                |
      ----------------------------------------------------------- 
 current energy:         -84.84276950
    bias energy:           0.00019704
unbiased energy:         -84.84296654
... step 27 ...
      ----------------------------------------------------------- 
     |                   =====================                   |
     |                        A N C O P T                        |
     |                   =====================                   |
     |               Approximate Normal Coordinate               |
     |                Rational Function Optimizer                |
      ----------------------------------------------------------- 
 current energy:         -84.84391936
    bias energy:           0.00028181
unbiased energy:         -84.84420117
... step 28 ...
      ----------------------------------------------------------- 
     |                   =====================                   |
     |                        A N C O P T                        |
     |                   =====================                   |
     |               Approximate Normal Coordinate               |
     |                Rational Function Optimizer                |
      ----------------------------------------------------------- 
 current energy:         -84.84529330
    bias energy:           0.00028509
unbiased energy:         -84.84557839
... step 29 ...
      ----------------------------------------------------------- 
     |                   =====================                   |
     |                        A N C O P T                        |
     |                   =====================                   |
     |               Approximate Normal Coordinate               |
     |                Rational Function Optimizer                |
      ----------------------------------------------------------- 
 current energy:         -84.84669661
    bias energy:           0.00020074
unbiased energy:         -84.84689735
... step 30 ...
      ----------------------------------------------------------- 
     |                   =====================                   |
     |                        A N C O P T                        |
     |                   =====================                   |
     |               Approximate Normal Coordinate               |
     |                Rational Function Optimizer                |
      ----------------------------------------------------------- 
 current energy:         -84.84771786
    bias energy:           0.00007410
unbiased energy:         -84.84779196
... step 31 ...
      ----------------------------------------------------------- 
     |                   =====================                   |
     |                        A N C O P T                        |
     |                   =====================                   |
     |               Approximate Normal Coordinate               |
     |                Rational Function Optimizer                |
      ----------------------------------------------------------- 
 current energy:         -84.84823713
    bias energy:           0.00005306
unbiased energy:         -84.84829020
... step 32 ...
      ----------------------------------------------------------- 
     |                   =====================                   |
     |                        A N C O P T                        |
     |                   =====================                   |
     |               Approximate Normal Coordinate               |
     |                Rational Function Optimizer                |
      ----------------------------------------------------------- 
 current energy:         -84.84866827
    bias energy:           0.00007586
unbiased energy:         -84.84874412
... step 33 ...
      ----------------------------------------------------------- 
     |                   =====================                   |
     |                        A N C O P T                        |
     |                   =====================                   |
     |               Approximate Normal Coordinate               |
     |                Rational Function Optimizer                |
      ----------------------------------------------------------- 
 current energy:         -84.84912363
    bias energy:           0.00014722
unbiased energy:         -84.84927085
... step 34 ...
      ----------------------------------------------------------- 
     |                   =====================                   |
     |                        A N C O P T                        |
     |                   =====================                   |
     |               Approximate Normal Coordinate               |
     |                Rational Function Optimizer                |
      ----------------------------------------------------------- 
 current energy:         -84.84964040
    bias energy:           0.00018641
unbiased energy:         -84.84982681
... step 35 ...
      ----------------------------------------------------------- 
     |                   =====================                   |
     |                        A N C O P T                        |
     |                   =====================                   |
     |               Approximate Normal Coordinate               |
     |                Rational Function Optimizer                |
      ----------------------------------------------------------- 
 current energy:         -84.84989255
    bias energy:           0.00020133
unbiased energy:         -84.85009388
... step 36 ...
      ----------------------------------------------------------- 
     |                   =====================                   |
     |                        A N C O P T                        |
     |                   =====================                   |
     |               Approximate Normal Coordinate               |
     |                Rational Function Optimizer                |
      ----------------------------------------------------------- 
 current energy:         -84.84972652
    bias energy:           0.00019465
unbiased energy:         -84.84992117
           -------------------------------------------------
          |                Property Printout                |
           -------------------------------------------------

    * Orbital Energies and Occupations

         #    Occupation            Energy/Eh            Energy/eV
      -------------------------------------------------------------
         1        2.0000           -0.7330345             -19.9469
       ...           ...                  ...                  ...
        59        2.0000           -0.4582939             -12.4708
        60        2.0000           -0.4545981             -12.3702
        61        2.0000           -0.4529747             -12.3261
        62        2.0000           -0.4445195             -12.0960
        63        2.0000           -0.4366682             -11.8823
        64        2.0000           -0.4337261             -11.8023
        65        2.0000           -0.4318438             -11.7511
        66        2.0000           -0.4292121             -11.6795
        67        2.0000           -0.4266295             -11.6092
        68        2.0000           -0.4237551             -11.5310
        69        2.0000           -0.4135284             -11.2527
        70        2.0000           -0.4039485             -10.9920
        71        2.0000           -0.4017020             -10.9309 (HOMO)
        72                         -0.0518884              -1.4120 (LUMO)
        73                         -0.0272151              -0.7406
        74                         -0.0236335              -0.6431
        75                         -0.0150891              -0.4106
        76                          0.0012444               0.0339
        77                          0.0141323               0.3846
        78                          0.0247799               0.6743
        79                          0.0317917               0.8651
        80                          0.0453718               1.2346
        81                          0.0469751               1.2783
        82                          0.0500985               1.3632
       ...                                ...                  ...
       120                          0.3126948               8.5089
      -------------------------------------------------------------
                  HL-Gap            0.3498137 Eh            9.5189 eV
             Fermi-level           -0.2267952 Eh           -6.1714 eV

     #   Z          covCN         q      C6AA      α(0)
     1   6 C        3.645     0.019    20.596     6.523
     2   8 O        1.700    -0.368    20.230     6.073
     3   6 C        3.640     0.236    17.255     5.974
     4   8 O        1.700    -0.353    19.940     6.029
     5   6 C        3.738     0.093    19.121     6.240
     6   6 C        3.675     0.076    19.527     6.332
     7   8 O        1.655    -0.497    22.822     6.449
     8   6 C        3.732     0.100    19.025     6.226
     9   8 O        1.698    -0.373    20.313     6.085
    10   6 C        3.634     0.238    17.241     5.975
    11   8 O        1.700    -0.341    19.725     5.996
    12   6 C        3.747     0.088    19.178     6.246
    13   6 C        3.676     0.065    19.714     6.362
    14   8 O        1.655    -0.476    22.378     6.386
    15   6 C        3.726     0.086    19.244     6.264
    16   8 O        1.655    -0.487    22.614     6.420
    17   6 C        3.728     0.101    19.011     6.225
    18   8 O        1.656    -0.511    23.127     6.492
    19   6 C        3.726     0.098    19.059     6.233
    20   8 O        1.656    -0.485    22.575     6.414
    21   6 C        3.729     0.098    19.054     6.232
    22   8 O        1.655    -0.487    22.605     6.418
    23   6 C        3.725     0.089    19.197     6.256
    24   8 O        1.656    -0.502    22.944     6.466
    25   1 H        0.924     0.061     2.184     2.311
    26   1 H        0.924     0.056     2.252     2.347
    27   1 H        0.925     0.088     1.896     2.153
    28   1 H        0.923     0.035     2.512     2.479
    29   1 H        0.923     0.057     2.230     2.335
    30   1 H        0.923     0.043     2.406     2.426
    31   1 H        0.924     0.065     2.143     2.289
    32   1 H        0.805     0.362     0.560     1.175
    33   1 H        0.924     0.054     2.265     2.354
    34   1 H        0.923     0.046     2.365     2.405
    35   1 H        0.924     0.052     2.300     2.371
    36   1 H        0.924     0.050     2.321     2.382
    37   1 H        0.924     0.076     2.022     2.224
    38   1 H        0.805     0.333     0.630     1.247
    39   1 H        0.924     0.062     2.176     2.307
    40   1 H        0.804     0.356     0.575     1.192
    41   1 H        0.923     0.053     2.288     2.366
    42   1 H        0.804     0.382     0.520     1.132
    43   1 H        0.924     0.045     2.379     2.412
    44   1 H        0.805     0.363     0.560     1.175
    45   1 H        0.924     0.073     2.056     2.242
    46   1 H        0.804     0.351     0.587     1.203
    47   1 H        0.923     0.050     2.325     2.384
    48   1 H        0.804     0.380     0.523     1.136

 Mol. C6AA /au·bohr⁶  :      19128.109713
 Mol. C8AA /au·bohr⁸  :     410283.597380
 Mol. α(0) /au        :        198.361119


Wiberg/Mayer (AO) data.
largest (>0.10) Wiberg bond orders for each atom

 ---------------------------------------------------------------------------
     #   Z sym  total        # sym  WBO       # sym  WBO       # sym  WBO
 ---------------------------------------------------------------------------
     1   6 C    3.921 --    25 H    0.979    26 H    0.978    27 H    0.977
                             2 O    0.959
     2   8 O    2.060 --     3 C    0.975     1 C    0.959
     3   6 C    3.929 --     4 O    0.979     2 O    0.975    23 C    0.955
                            28 H    0.944
     4   8 O    2.075 --     3 C    0.979     5 C    0.950
     5   6 C    3.940 --     6 C    0.979     8 C    0.971    29 H    0.957
                             4 O    0.950
     6   6 C    3.959 --     7 O    1.009     5 C    0.979    30 H    0.964
                            31 H    0.962
     7   8 O    1.923 --     6 C    1.009    32 H    0.854
     8   6 C    3.941 --     5 C    0.971     9 O    0.963    21 C    0.959
                            33 H    0.949
     9   8 O    2.053 --     8 C    0.963    10 C    0.940
    10   6 C    3.922 --    11 O    1.006    34 H    0.950    19 C    0.949
                             9 O    0.940
    11   8 O    2.100 --    10 C    1.006    12 C    0.942
    12   6 C    3.933 --    13 C    0.981    15 C    0.962    35 H    0.953
                            11 O    0.942
    13   6 C    3.955 --    14 O    1.005    12 C    0.981    36 H    0.968
                            37 H    0.968
    14   8 O    1.941 --    13 C    1.005    38 H    0.873
    15   6 C    3.959 --    16 O    1.008    12 C    0.962    39 H    0.957
                            17 C    0.955
    16   8 O    1.939 --    15 C    1.008    40 H    0.854
    17   6 C    3.958 --    18 O    1.003    19 C    0.974    41 H    0.956
                            15 C    0.955
    18   8 O    1.914 --    17 C    1.003    42 H    0.839
    19   6 C    3.960 --    20 O    1.004    17 C    0.974    43 H    0.961
                            10 C    0.949
    20   8 O    1.938 --    19 C    1.004    44 H    0.850
    21   6 C    3.957 --    22 O    1.007    23 C    0.963     8 C    0.959
                            45 H    0.957
    22   8 O    1.940 --    21 C    1.007    46 H    0.855
    23   6 C    3.960 --    24 O    1.006    21 C    0.963    47 H    0.957
                             3 C    0.955
    24   8 O    1.920 --    23 C    1.006    48 H    0.840
    25   1 H    0.996 --     1 C    0.979
    26   1 H    0.997 --     1 C    0.978
    27   1 H    0.992 --     1 C    0.977
    28   1 H    0.999 --     3 C    0.944
    29   1 H    0.997 --     5 C    0.957
    30   1 H    0.998 --     6 C    0.964
    31   1 H    0.996 --     6 C    0.962
    32   1 H    0.868 --     7 O    0.854
    33   1 H    0.997 --     8 C    0.949
    34   1 H    0.998 --    10 C    0.950
    35   1 H    0.997 --    12 C    0.953
    36   1 H    0.997 --    13 C    0.968
    37   1 H    0.994 --    13 C    0.968
    38   1 H    0.889 --    14 O    0.873
    39   1 H    0.996 --    15 C    0.957
    40   1 H    0.874 --    16 O    0.854
    41   1 H    0.996 --    17 C    0.956
    42   1 H    0.854 --    18 O    0.839
    43   1 H    0.998 --    19 C    0.961
    44   1 H    0.869 --    20 O    0.850
    45   1 H    0.995 --    21 C    0.957
    46   1 H    0.877 --    22 O    0.855
    47   1 H    0.997 --    23 C    0.957
    48   1 H    0.855 --    24 O    0.840
 ---------------------------------------------------------------------------

Topologies differ in total number of bonds
Writing topology from bond orders to xtbtopo.mol

molecular dipole:
                 x           y           z       tot (Debye)
 q only:        0.777      -0.300       0.325
   full:        1.153      -0.475       0.033       3.171
molecular quadrupole (traceless):
                xx          xy          yy          xz          yz          zz
 q only:       23.753       5.240     -12.267      -6.892     -12.536     -11.486
  q+dip:       30.956       6.647     -16.948      -7.670     -15.871     -14.008
   full:       30.750       6.882     -15.967      -7.904     -15.794     -14.782

           -------------------------------------------------
          |                Geometry Summary                 |
           -------------------------------------------------

      molecular mass/u    :      356.3235988
   center of mass at/Å    :       -0.0941961       0.0172530      -0.0075303
  moments of inertia/u·Å² :        0.1332952E+04   0.3085396E+04   0.3195725E+04
rotational constants/cm⁻¹ :        0.1264684E-01   0.5463686E-02   0.5275057E-02

 * 44 selected distances

     #   Z          #   Z                                           value/Å
     1   6 C        2   8 O                                       1.4251103
     2   8 O        3   6 C                                       1.4033821
     3   6 C        4   8 O                                       1.3982722
     4   8 O        5   6 C                                       1.4313191
     5   6 C        6   6 C                                       1.5311271
     6   6 C        7   8 O                                       1.4032304
     5   6 C        8   6 C                                       1.5328424
     8   6 C        9   8 O                                       1.4180073
     9   8 O       10   6 C                                       1.4293704
    10   6 C       11   8 O                                       1.3855355
    11   8 O       12   6 C                                       1.4324693
    12   6 C       13   6 C                                       1.5316826
    13   6 C       14   8 O                                       1.4074652
    15   6 C       16   8 O                                       1.4016127
    17   6 C       18   8 O                                       1.4028915
    17   6 C       19   6 C                                       1.5336308
    19   6 C       20   8 O                                       1.4034106
    21   6 C       22   8 O                                       1.4012241
     3   6 C       23   6 C                                       1.5360939 (max)
    23   6 C       24   8 O                                       1.4012472
     1   6 C       25   1 H                                       1.0916014
     1   6 C       26   1 H                                       1.0924219
     1   6 C       27   1 H                                       1.0856050
     3   6 C       28   1 H                                       1.1039342
     5   6 C       29   1 H                                       1.0992529
     6   6 C       30   1 H                                       1.0990276
     6   6 C       31   1 H                                       1.0903686
     7   8 O       32   1 H                                       0.9680875
     8   6 C       33   1 H                                       1.0959456
    10   6 C       34   1 H                                       1.1031959
    12   6 C       35   1 H                                       1.0956308
    13   6 C       36   1 H                                       1.0952746
    13   6 C       37   1 H                                       1.0911103
    14   8 O       38   1 H                                       0.9664734 (min)
    15   6 C       39   1 H                                       1.0952016
    16   8 O       40   1 H                                       0.9700355
    17   6 C       41   1 H                                       1.0996249
    18   8 O       42   1 H                                       0.9689032
    19   6 C       43   1 H                                       1.0962766
    20   8 O       44   1 H                                       0.9679290
    21   6 C       45   1 H                                       1.0953832
    22   8 O       46   1 H                                       0.9700323
    23   6 C       47   1 H                                       1.0984343
Note: The following floating-point exceptions are signalling: IEEE_UNDERFLOW_FLAG IEEE_DENORMAL
normal termination of xtb
    24   8 O       48   1 H                                       0.9689687

 * 4 distinct bonds (by element types)

   Z      Z             #   av. dist./Å        max./Å        min./Å
   1 H    6 C          17     1.0957817     1.1039342     1.0856050
   6 C    6 C           5     1.5330753     1.5360939     1.5311271
   1 H    8 O           7     0.9686328     0.9700355     0.9664734
   6 C    8 O          15     1.4096365     1.4324693     1.3855355


optimized geometry written to: xtbopt.xyz


           -------------------------------------------------
          | TOTAL ENERGY              -84.838787785342 Eh   |
          | GRADIENT NORM               0.000398695026 Eh/α |
          | HOMO-LUMO GAP               9.518913974559 eV   |
           -------------------------------------------------

------------------------------------------------------------------------
 * finished run on 2026/09/21 at 15:51:31.251     
------------------------------------------------------------------------
 total:
 * wall-time:     0 d,  0 h,  3 min, 57.216 sec
 *  cpu-time:     0 d,  0 h,  3 min, 45.792 sec
 * ratio c/w:     0.952 speedup
 SCF:
 * wall-time:     0 d,  0 h,  0 min,  0.378 sec
 *  cpu-time:     0 d,  0 h,  0 min,  0.368 sec
 * ratio c/w:     0.973 speedup
 ANC optimizer:
 * wall-time:     0 d,  0 h,  3 min, 56.791 sec
 *  cpu-time:     0 d,  0 h,  3 min, 45.381 sec
 * ratio c/w:     0.952 speedup

