48
cell 60,-170 xtb/ALPB scan2 frame
C 5.743548 -0.752410 0.349794
O 4.859101 0.363222 0.396491
C 3.594979 0.085415 0.875535
O 2.884059 -0.635920 -0.111096
C 1.555672 -0.942463 0.259991
C 0.976735 -1.826881 -0.852230
O 1.595690 -3.080642 -0.917771
C 0.714967 0.330104 0.463295
O -0.548886 -0.127151 0.928977
C -1.575209 0.832742 0.981703
O -1.855349 1.380356 -0.277750
C -2.363265 0.450776 -1.232408
C -2.676678 1.267393 -2.497859
O -3.110287 0.462110 -3.564719
C -3.617548 -0.273884 -0.715825
O -4.023650 -1.297838 -1.588042
C -3.326230 -0.917076 0.645992
O -4.484253 -1.476503 1.214625
C -2.809736 0.161692 1.599619
O -2.463980 -0.345634 2.855841
C 1.410643 1.251468 1.481054
O 0.819572 2.525602 1.587223
C 2.910071 1.423240 1.173358
O 3.570125 2.000633 2.266728
H 5.386762 -1.496513 -0.363711
H 5.840159 -1.203017 1.341341
H 6.697981 -0.347384 0.026350
H 3.639570 -0.513152 1.808263
H 1.548246 -1.503112 1.207015
H 1.077772 -1.293561 -1.805790
H -0.075468 -2.015297 -0.635616
H 2.541614 -2.951033 -1.075877
H 0.594100 0.861896 -0.491511
H -1.278145 1.685681 1.604567
H -1.600900 -0.313120 -1.449679
H -1.794571 1.857424 -2.762548
H -3.493809 1.957018 -2.273706
H -2.354576 0.018775 -3.975968
H -4.426598 0.462678 -0.580151
H -4.128940 -0.920764 -2.480233
H -2.549387 -1.686566 0.523526
H -4.882675 -2.076870 0.566623
H -3.591013 0.933119 1.701052
H -3.183790 -0.927685 3.148690
H 1.302003 0.801134 2.474817
H 0.844693 2.976636 0.729119
H 3.032964 2.048876 0.274480
H 3.073915 2.786481 2.549903
