48
 energy: -84.844783192194 gnorm: 0.000119166179 xtb: 6.7.1 (edcfbbe)
C           -4.24564009057766        3.07679484618840        1.08753189763521
O           -3.59666878679834        1.95301927905356        1.67429588397952
C           -3.18211360106508        0.98648729460596        0.76926141113800
O           -2.19647049467628        1.54984303737944       -0.07259163557695
C           -1.64332313162826        0.65609703523740       -1.01941259280024
C           -2.64273240912387        0.32734752344971       -2.15299095880721
O           -1.99452107727373       -0.03411936233921       -3.34644623354658
C           -1.06558855686703       -0.60498708862066       -0.35710076756205
O            0.13635297906007       -0.24453450219728        0.30337697556215
C            1.15308797953492       -1.20674940619036        0.30313159107610
O            1.90686880922144       -1.15363746933305       -0.88395124099405
C            2.84615908815953       -0.08393772127964       -0.86609019605588
C            3.30697973169359        0.21518603714538       -2.29367955658979
O            4.01213800320789        1.42706963878507       -2.37279378546036
C            4.02204321404774       -0.47200739751807        0.04837001937684
O            4.68456987216693        0.71330686894014        0.40088605205425
C            3.49498289480105       -1.29595482374918        1.24898030225588
O            3.66390829564657       -2.67407955160311        1.03544802125025
C            2.02570037047124       -0.95574086427834        1.56364252863662
O            1.97225760079222        0.37061056575149        2.00351504125367
C           -2.03882487346306       -1.25050315264090        0.64959874872695
O           -3.03436495234248       -1.92632068920054       -0.07135667323903
C           -2.62601054575044       -0.18678256617973        1.59241274461442
O           -1.62485589996711        0.22748231831549        2.48045389477529
H           -3.56628013560140        3.60285646096868        0.41587473265608
H           -5.13409868389499        2.75436689030225        0.53782686636408
H           -4.52647369823330        3.71416386047519        1.92083366498939
H           -4.03440436246812        0.63250409396555        0.15631134446086
H           -0.80950266625477        1.21820469640134       -1.45507339457799
H           -3.19668485975586        1.24258205484603       -2.37813085923649
H           -3.33975409834596       -0.45266506021538       -1.83477478279569
H           -1.69781549159428       -0.95251192168958       -3.29849657748369
H           -0.84716554418802       -1.33787459927874       -1.14364623700242
H            0.73382869377562       -2.22109476609452        0.32502555424796
H            2.37513253941235        0.81711566697337       -0.45271305694827
H            3.92348112139060       -0.61720603096346       -2.66190354528310
H            2.43401194828896        0.31485260504217       -2.94274155982503
H            4.60338407204248        1.49672282332712       -1.60530476220431
H            4.70730782704544       -1.13638221205902       -0.50579352807295
H            5.38375718360957        0.52886003224943        1.04443132474654
H            4.08403646969139       -1.05625186278003        2.14001537472453
H            3.23001088172505       -2.92811163369224        0.20770132102845
H            1.67300793114499       -1.63211439988190        2.35820082662039
H            1.04412391565877        0.65348026566542        2.01447826982045
H           -1.45324144589802       -1.94494539348945        1.27047262070058
H           -3.51967749088096       -2.52974158300250        0.51115353083498
H           -3.47109720746866       -0.62306582497964        2.15087992352738
H           -1.92982231130582        1.04236495284977        2.91008144595464
