48
 energy: -84.858777774488 gnorm: 0.000414148564 xtb: 6.7.1 (edcfbbe)
C            5.60736914815975       -1.15018023180617        0.19881826420145
O            4.91824363620898       -0.00796259025817        0.69861015048039
C            3.56201637010204       -0.18617131015829        0.88441025666580
O            2.93813773847388       -0.25810881308704       -0.38167404617004
C            1.53778060855420       -0.44793368720014       -0.33449714610830
C            1.06100867667200       -0.57317625356910       -1.79317581473271
O            0.96312955908751       -1.90400128538625       -2.22123182788934
C            0.82723366026431        0.70085385648863        0.40845911530223
O           -0.51643987959954        0.29734683036293        0.65450457631586
C           -1.54628219165404        1.17831223458793        0.30748697298951
O           -1.99790800925118        0.98378406931092       -1.00558458854530
C           -2.57924022226518       -0.29829655076894       -1.26354779326655
C           -3.09934073931997       -0.25542609800266       -2.70790646373172
O           -2.08341811748216       -0.01180271815848       -3.64310658884014
C           -3.71700035043795       -0.62677372199785       -0.28669417871531
O           -4.21812355726159       -1.92407210846586       -0.47866033998270
C           -3.24841249752583       -0.42409722031215        1.16215388456288
O           -4.31052128252559       -0.58169628811650        2.07234231821251
C           -2.70015399118928        0.99729460009202        1.30795296693130
O           -2.22873826798807        1.26845979964552        2.59519553793072
C            1.50030624406396        0.99149522368349        1.76322653302548
O            1.03853485933451        2.18175957409490        2.34928778639071
C            3.03536444876855        1.01454760367927        1.67627949424253
O            3.59911429394004        0.96798376943755        2.95908498538785
H            5.26507334619777       -1.39340573706431       -0.80806939451646
H            5.45524103200667       -2.00601794150860        0.86217870354867
H            6.65599771599112       -0.86846293321978        0.18311504371635
H            3.35401032701196       -1.11642666756910        1.45262155614115
H            1.30310866177067       -1.37828839250576        0.20696118790573
H            1.75038456664497        0.00269813335338       -2.41957996896409
H            0.06072331814500       -0.15328648568046       -1.89063897488154
H            1.84868961781303       -2.27658756887957       -2.33176192229932
H            0.84709055950802        1.60220772154679       -0.21719244264133
H           -1.20235336849538        2.21913251525120        0.33986353306585
H           -1.79955218024403       -1.06899937079257       -1.17268710383707
H           -3.87947988076398        0.51259124055212       -2.77241881858384
H           -3.52950638514987       -1.22581813309956       -2.95938341224090
H           -1.73449764908788        0.87713866945637       -3.48914314380146
H           -4.56525303624425        0.04300120006068       -0.47133929884705
H           -3.49538072708679       -2.56769774550077       -0.42650890375409
H           -2.43757436459872       -1.13225414756131        1.39574868746919
H           -4.83247422879814       -1.35491704102570        1.80764809762727
H           -3.49667006746113        1.70819332742949        1.03281301313026
H           -2.89866188787967        0.96711452932245        3.22961873887647
H            1.19800100325475        0.19904055994472        2.45711073828582
H            1.27613555594115        2.93914294472963        1.79305363424794
H            3.36786305395489        1.91895380301930        1.14124710945453
H            3.14642266446544        1.62080471776616        3.51849146596248
