48
 energy: -84.819986555887 gnorm: 0.000395963561 xtb: 6.7.1 (edcfbbe)
C            5.06689006549593        2.66098540075808       -1.11245436406913
O            4.69458140263268        1.29679708851139       -1.13899862855952
C            3.33513748145733        1.07837392084392       -1.17903574985363
O            2.80357582450242        1.40692151482794        0.09234545538994
C            1.42444311948065        1.16928063054193        0.25551640653445
C            1.10949848216350        1.56222816576173        1.70763923025348
O            1.95294508531265        0.89907005656992        2.60337462883461
C            1.07026723920005       -0.30571634060470        0.00397048386493
O           -0.34568672828723       -0.42996253481841        0.01137859314547
C           -0.91895121540169       -1.42613403301724        0.80728286889120
O           -1.59310093089295       -0.87024052532763        1.90587526842377
C           -2.64979715257095        0.00330751756494        1.54876321473251
C           -3.24154166554648        0.54418678181613        2.85824455775356
O           -4.22959752193937        1.52220902137085        2.63017299903934
C           -3.71275579130649       -0.72712078469436        0.71022198096460
O           -4.72059052790751        0.13931631562066        0.25188869964642
C           -3.03410006807036       -1.34684854777036       -0.51471501087946
O           -3.92850620419679       -2.11962463760199       -1.27874329556995
C           -1.90093470486651       -2.25649846272962       -0.04188281966126
O           -1.21579567892523       -2.82949088757040       -1.12506063604149
C            1.60670141543585       -0.75050481146870       -1.36385028233470
O            1.50180251209576       -2.13659044928732       -1.55825254642258
C            3.09232228255557       -0.39580062850342       -1.51689024758850
O            3.50380926961535       -0.61646747468995       -2.83653734744966
H            4.68482374767370        3.15675590444485       -0.21606899456136
H            4.69475852518193        3.18169300271249       -2.00172201085902
H            6.15406949317216        2.67258522337497       -1.10737131409849
H            2.84644149695892        1.70858389689050       -1.95147412682955
H            0.83972412697254        1.78777572323638       -0.44386752512841
H            0.08848329667626        1.26890175705955        1.95675316445104
H            1.21441504594905        2.65238125905920        1.80883266306644
H            2.85396621090677        0.99633798079285        2.26607231506192
H            1.51930783871668       -0.92086475756827        0.79311378136593
H           -0.15487735578579       -2.08172826075325        1.24150906591356
H           -2.25534141352368        0.83754694470493        0.94490098494249
H           -2.42704409603162        0.92737440746520        3.48197099050211
H           -3.73319099345423       -0.26864985531819        3.39634481722776
H           -3.81076191029871        2.32321367705718        2.29385498475721
H           -4.14962723556900       -1.53812705726721        1.31757379412678
H           -5.03072972670614        0.65858624145574        1.01105674701930
H           -2.61010674167577       -0.53864082776063       -1.13096122046653
H           -4.73648980218781       -1.60101764767488       -1.37561201616630
H           -2.32509683467618       -3.04683043604252        0.59661021105969
H           -1.88715322796602       -3.10032116099246       -1.76632577378257
H            1.03685240159029       -0.21097836271247       -2.13962345765480
H            0.57252723342945       -2.40163798680042       -1.44478655387804
H            3.68007881266580       -1.00676280419845       -0.81595424545309
H            3.26435396212084       -1.52785654397282       -3.05159700184746
