48
 energy: -84.858289710618 gnorm: 0.000669019428 xtb: 6.7.1 (edcfbbe)
C            5.47806702366121       -1.55603340438510        0.05994617340382
O            4.87744410154535       -0.40033545482520        0.63811349132796
C            3.49701771964195       -0.43581983604858        0.71911545442878
O            2.93978545132590       -0.39029892774633       -0.57690459737695
C            1.52866332860101       -0.47508800173240       -0.56604803648414
C            1.05332964773572       -0.45626402083246       -2.02510035422327
O            1.26880804594036       -1.67494580971604       -2.68076914293292
C            0.87917845514127        0.66769040618689        0.23791414650757
O           -0.48965411501724        0.32892043024143        0.39650417529703
C           -1.45867010615169        1.29485836953248        0.09019334136538
O           -2.14800264189283        0.96338705713704       -1.08565556344413
C           -2.81744150632444       -0.29733049460181       -1.05022453250622
C           -3.52125644205977       -0.45707731780299       -2.40470436533773
O           -2.62188276629267       -0.50713765032932       -3.47957627737810
C           -3.82885676515010       -0.36414436763062        0.10307349262195
O           -4.43705378279665       -1.62540679242681        0.20861613094726
C           -3.15028782338717        0.03418527138801        1.42145142734350
O           -4.08575315266390        0.14153807925467        2.46862004051821
C           -2.46576800537593        1.39495956988167        1.25380065243213
O           -1.79832124831999        1.79525982604162        2.41374462831052
C            1.53341090138716        0.89255761351142        1.60771078616663
O            1.15454405756382        2.17299534194728        2.04107684941384
C            3.06430106283364        0.79370862565525        1.52874578877493
O            3.54805115177091        0.73605279739667        2.84458148890547
H            5.20018052944361       -1.64728091021705       -0.98987683772811
H            5.17383555859129       -2.45422975688469        0.60408223852234
H            6.54889999439532       -1.40109539822391        0.15366972242930
H            3.15189410127782       -1.36111611610273        1.22833774790526
H            1.22183559090886       -1.42510950481019       -0.09850896194188
H            1.55902013609026        0.36873709028141       -2.53981640259821
H           -0.02432870139568       -0.28949813407315       -2.04375601334238
H            2.22025015893297       -1.82586932858911       -2.76900525912620
H            0.97529759914496        1.60487092218925       -0.32552495700696
H           -1.00184964042261        2.27345556964447       -0.08722092207286
H           -2.06738966534286       -1.09211882045097       -0.92493525729675
H           -4.22860534394761        0.37189477920729       -2.52593502171152
H           -4.06860190180051       -1.40077094947146       -2.41225495853128
H           -2.16467947893243        0.34344283892712       -3.53530450308004
H           -4.64698767492222        0.33916477020392       -0.09158082194585
H           -3.75929971954143       -2.31168214145282        0.30390409591011
H           -2.37645899752219       -0.70710525647697        1.67843449890401
H           -4.71294505878712       -0.59466965271522        2.39941930872341
H           -3.22842734083186        2.13842839011845        0.96968040333655
H           -2.41086107528235        1.69428566940072        3.16040052015801
H            1.16773937417066        0.12298876815647        2.30239777221546
H            1.50810970153537        2.31897030249858        2.93142867612720
H            3.44840502059058        1.68160313923704        1.00464235497667
H            4.51531497406164        0.67647143576245        2.82658024874795
