48
 energy: -84.793122328794 gnorm: 0.000539198789 xtb: 6.7.1 (edcfbbe)
C            5.67106192902413        1.27132919031194       -0.39436130380611
O            4.78648822298317        0.25161719529753        0.02615991127292
C            3.58177459590425        0.22877796861746       -0.64338757407845
O            2.80991371469578        1.33396451771841       -0.21893284459170
C            1.53230613841420        1.41724077879740       -0.82003092447946
C            0.95003281988877        2.76476646620119       -0.39113085947576
O            1.77112600486382        3.81596009605135       -0.82182575915988
C            0.69437091260823        0.18718794100609       -0.42837482422166
O           -0.58603200887013        0.23602588329842       -1.04667480767961
C           -1.71395421358478       -0.01244926545229       -0.27618274257590
O           -1.43622220642972       -0.93229331906809        0.75721915241030
C           -2.58817594386242       -1.66148879503424        1.15926323663484
C           -2.80440432616043       -2.91509662848653        0.28585122899482
O           -1.72541987135712       -3.80022258299292        0.33837888490844
C           -3.83866858862465       -0.76232811947274        1.16546201423427
O           -4.79132701182600       -1.16280235368595        2.11773468715558
C           -3.43192759043766        0.70328694802545        1.40455262225826
O           -4.55844037419026        1.53916625791826        1.36272554962525
C           -2.38871942979463        1.21723604227737        0.38212043773334
O           -1.42275701351873        1.99369568577549        1.03607215065946
C            1.42628444771463       -1.09797515427147       -0.82619623370540
O            0.77264628706404       -2.25559109169330       -0.35164264921247
C            2.87731451829387       -1.09123947417971       -0.30918797703134
O            3.59866960440569       -2.13831863063392       -0.89719550604362
H            5.26110983376225        2.26288490485609       -0.18399709655764
H            5.88121546927533        1.18573345201473       -1.46621813154971
H            6.58671743406780        1.12332786333869        0.17305947259511
H            3.72979187313355        0.28606482159173       -1.74287628744653
H            1.64664566865017        1.41780979316640       -1.91820369094570
H            0.84073416256672        2.77266221579840        0.69937713799891
H           -0.02393296328424        2.90704050115438       -0.85676001638556
H            2.66496328152021        3.61489501074449       -0.51815274406318
H            0.57092562324410        0.20570468904688        0.66235680810595
H           -2.43611515249683       -0.43703709296261       -0.99122466413010
H           -2.35811190901436       -1.98799948031538        2.18154830836399
H           -3.01233873242574       -2.60609352460480       -0.74812357527242
H           -3.67422787048551       -3.45261709455030        0.67123069071430
H           -0.96161145025153       -3.39640834966158       -0.10002483495525
H           -4.36752600943461       -0.83009366675185        0.20792586155765
H           -4.37707130234938       -1.20956698570793        2.98909533585215
H           -2.95921791150492        0.75943525670124        2.40338457890266
H           -5.30720477231562        1.04695843699256        1.72771598916299
H           -2.90700964612493        1.79974828499018       -0.39088425171344
H           -1.85283880292189        2.78761323077160        1.37556353932436
H            1.43727366230728       -1.18718968245439       -1.91883210382115
H            0.43620704042002       -2.06210710715317        0.53562701789193
H            2.87345994219482       -1.19016209568593        0.78875534452794
H            3.06703198775280       -2.94105910825497       -0.80727540577994
