48
Coordinates from ORCA-job 3_opt_3c E -1337.095369768831
  C           5.65124213720805     -0.85189356821499      0.26376522180116
  O           4.87265213210319      0.32699331103319      0.53115693806719
  C           3.52914136128524      0.06509241152543      0.76775723584277
  O           2.89854757717696     -0.25564554098445     -0.47513054290490
  C           1.51742096303487     -0.59460694832887     -0.30996040924448
  C           1.02370053417925     -1.06645661082018     -1.66705778479449
  O           1.03675501962219     -0.03353853508009     -2.65313483389502
  C           0.73807438877128      0.61280442317571      0.23141025158958
  O          -0.59247839511510      0.12454869764677      0.44807979224124
  C          -1.62648725320159      1.08238784504367      0.53056854610335
  O          -2.33041048325597      1.17960246918269     -0.70236877040048
  C          -2.96317574182903     -0.04011034796576     -1.13844322038762
  C          -3.56946518047378      0.26780555353364     -2.49527842898537
  O          -4.58033976370172      1.27624703335463     -2.43495718389042
  C          -3.98565025680899     -0.49424412034711     -0.09432312086484
  O          -4.52805865086879     -1.77532618183412     -0.43472311221613
  C          -3.30406354776335     -0.63831742418160      1.25642643599049
  O          -4.24551014681175     -0.91127910329085      2.29860476513537
  C          -2.60930039685009      0.66386063143919      1.62776567886137
  O          -1.91407741239804      0.55721768291889      2.86436153809558
  C           1.38858855879465      1.11744929400322      1.51567334869423
  O           0.77296441974582      2.34838886543578      1.89677438923571
  C           2.88802702751604      1.32657979607826      1.32491379435621
  O           3.41240312290579      1.66723375611864      2.60734675732277
  H           5.33990440323020     -1.32453886702046     -0.67439230131511
  H           5.55414690275108     -1.57078043349496      1.08792477383352
  H           6.68970710509972     -0.52625023062984      0.18195468242657
  H           3.40591548960986     -0.78526690002884      1.46830626802205
  H           1.41407532780051     -1.43025051179889      0.40540882490457
  H           1.64269835428300     -1.92000718654222     -1.98070245972227
  H          -0.01134987191905     -1.40545571147386     -1.57748885846428
  H           1.95255782231049      0.25761739986102     -2.75511570533415
  H           0.73321686840778      1.41512212368569     -0.52178875292772
  H          -1.22902871492924      2.08225451974701      0.72224175297880
  H          -2.21100301405813     -0.83379311326173     -1.27073410006831
  H          -2.76145971945005      0.56008665461260     -3.18271648376985
  H          -4.04499283203253     -0.63487876592983     -2.89236232442864
  H          -4.16876901329538      2.06998600805718     -2.06805523857014
  H          -4.78541900919677      0.25636913204867     -0.01209005892143
  H          -5.30631650875724     -1.64153438644044     -0.98908570739246
  H          -2.55874154872434     -1.44898457367578      1.19861123250514
  H          -4.66257495826463     -1.75870421973678      2.09463911580325
  H          -3.37320854427636      1.45771841097076      1.68646628175170
  H          -2.55696905998343      0.25596436629519      3.52049741527174
  H           1.23935969151238      0.35619157011797      2.30169117191258
  H           1.21677915928243      2.64779824022884      2.70200972261534
  H           3.05434885056627      2.14151171334480      0.60105332905727
  H           4.32291080676832      1.96580837162222      2.48547313407852
