48
-84.842494020211
C 5.734398 0.918373 -0.731429
O 4.659385 1.414592 0.057197
C 3.531153 0.616920 0.077181
O 2.931871 0.589273 -1.199168
C 1.741855 -0.174049 -1.234756
C 1.276989 -0.202342 -2.696717
O 2.205710 -0.831894 -3.535397
C 0.660599 0.421007 -0.306432
O -0.478312 -0.422450 -0.346640
C -1.693945 0.125628 -0.811716
O -2.580655 -0.936827 -0.976300
C -2.911757 -1.595481 0.244523
C -3.857029 -2.751430 -0.120249
O -4.159363 -3.559879 0.990285
C -3.574226 -0.627390 1.240536
O -3.780093 -1.224891 2.495994
C -2.674508 0.597310 1.445975
O -3.316813 1.593095 2.209193
C -2.346456 1.199118 0.080994
O -1.543141 2.342473 0.160998
C 1.245052 0.451771 1.117558
O 0.352136 1.039587 2.020777
C 2.569414 1.222826 1.107331
O 3.102276 1.163530 2.404769
H 5.471218 0.921137 -1.789811
H 6.000073 -0.096346 -0.420506
H 6.564414 1.596226 -0.550811
H 3.785908 -0.424411 0.377660
H 1.951840 -1.203853 -0.904101
H 1.090653 0.829510 -3.023047
H 0.354042 -0.780181 -2.765079
H 3.045722 -0.360124 -3.458265
H 0.403438 1.436308 -0.617195
H -1.548123 0.553717 -1.817197
H -1.994056 -1.988460 0.705441
H -3.406928 -3.326496 -0.934980
H -4.805579 -2.339886 -0.472722
H -3.395904 -4.111641 1.206234
H -4.533594 -0.282785 0.816747
H -4.228326 -2.076434 2.354189
H -1.742827 0.285211 1.935352
H -3.606452 1.186517 3.036548
H -3.302179 1.455857 -0.412961
H -1.822588 2.832359 0.948268
H 1.448033 -0.589613 1.423432
H 0.846587 1.232637 2.831781
H 2.374040 2.264230 0.809673
H 3.956044 1.617645 2.410323
