48
 energy: -84.842412550252 gnorm: 0.000219511034 xtb: 6.7.1 (edcfbbe)
C            4.63993847814340        0.85796489208162        0.75195601231192
O            3.66493698362689        0.31813552208945       -0.12973080305640
C            3.20227455771288        1.22265804878853       -1.08994858389644
O            2.49518378456349        2.29807978031209       -0.53248302066486
C            1.09833871398068        2.08772802739393       -0.33730436258018
C            0.67831761314722        2.98691470712526        0.83143482498338
O            0.83861655602812        4.34701927968243        0.53144650288776
C            0.79996281120886        0.60352265385449       -0.06647705995981
O           -0.56636433827562        0.47533337466758        0.29298462602792
C           -0.88389681277411       -0.22418946251607        1.47382086942214
O           -2.23958719359233       -0.00608539012581        1.71626957006852
C           -3.08426289622781       -0.54089453972944        0.69955636625147
C           -4.52544701112154       -0.17456871124997        1.08848428347267
O           -5.45240239057721       -0.54726579572867        0.09827740386692
C           -2.91338934694367       -2.06564198496213        0.57273794974987
O           -3.62402440126894       -2.58213522958465       -0.52404891149922
C           -1.43144599849817       -2.41753693323641        0.38066161186672
O           -1.21112703810180       -3.80474161121194        0.48588418422740
C           -0.62430069099863       -1.74230061372637        1.49014699087659
O            0.74750546822347       -2.03450926550660        1.42682522413409
C            1.08344001826687       -0.14460168841382       -1.38560071383535
O            1.17752255792211       -1.53181489475126       -1.25371141196883
C            2.34015112875154        0.43333341859905       -2.08569661006489
O            1.90812519610592        1.24962864208608       -3.14226069697954
H            4.24311532746755        1.72486477516063        1.28552334559733
H            5.53487672479394        1.15293431675937        0.19553154565017
H            4.87836771998936        0.06201037146220        1.45221661148144
H            4.06101741860159        1.69459507175286       -1.60251613631328
H            0.55669553538232        2.39707213526247       -1.24219582527276
H            1.26911610957754        2.71356355556035        1.71801654004747
H           -0.38097650584715        2.83181084630904        1.04288278179882
H            1.74103471759207        4.47506316260404        0.20933444280424
H            1.44573542241496        0.22892729323549        0.73371154916944
H           -0.34938326347351        0.22738852604977        2.32686560251642
H           -2.82556435686903       -0.08315577825422       -0.26591379965831
H           -4.56562745078950        0.89684880695738        1.30560041397995
H           -4.80048821857526       -0.71992678304113        1.99427471035148
H           -5.40508491058455        0.07485370718785       -0.63957727286773
H           -3.25614664626785       -2.53923023075254        1.50950897828606
H           -4.53490616869051       -2.24338747347400       -0.47779352726575
H           -1.09502385571133       -2.05127877338913       -0.59948765791477
H           -1.78190222482549       -4.24577198652821       -0.15633013712181
H           -1.02619212542586       -2.09134016596574        2.45642723274073
H            0.82094449531853       -3.00112836010877        1.39543070755837
H            0.23996226820715        0.05375373263310       -2.06177971218848
H            1.51850094226168       -1.74485560402287       -0.36860661101022
H            2.92969092213629       -0.41904191571491       -2.45151523253437
H            2.66416902561304        1.54139195028831       -3.66935361433648
