48
-84.804669096071
C 5.018218 1.694053 0.912151
O 4.095364 0.712425 1.345749
C 3.331926 0.172382 0.333815
O 2.414380 1.154655 -0.108178
C 1.561164 0.731713 -1.150314
C 0.885316 1.992672 -1.714249
O 0.565112 1.871246 -3.065396
C 0.657639 -0.378272 -0.575559
O -0.282742 -0.916776 -1.503868
C -1.664132 -0.933820 -1.301964
O -2.039962 -1.678890 -0.158088
C -2.174670 -1.043684 1.104542
C -2.828643 -2.084571 2.031131
O -2.879692 -1.634302 3.363379
C -3.021336 0.235451 1.041827
O -2.992823 0.937145 2.257682
C -2.469519 1.156687 -0.048374
O -3.283939 2.288324 -0.236120
C -2.465058 0.383010 -1.369417
O -2.016842 1.154909 -2.444592
C 1.527693 -1.541822 -0.084334
O 0.750648 -2.505361 0.591531
C 2.607977 -1.060572 0.891668
O 3.558032 -2.065907 1.104377
H 4.501347 2.545511 0.462989
H 5.720235 1.269933 0.185817
H 5.555664 2.011388 1.802440
H 3.963531 -0.147710 -0.521733
H 2.158845 0.296145 -1.970099
H 1.622171 2.796780 -1.634384
H 0.014115 2.266896 -1.109709
H -0.232079 1.324306 -3.140638
H 0.149902 0.058348 0.291123
H -1.993482 -1.554358 -2.147370
H -1.191770 -0.785574 1.529544
H -2.280365 -3.027586 1.940700
H -3.862082 -2.252207 1.720727
H -1.992181 -1.661428 3.740467
H -4.058162 -0.032300 0.775083
H -3.221098 0.313250 2.965600
H -1.456046 1.477898 0.235336
H -3.474182 2.653504 0.636814
H -3.512231 0.079144 -1.548160
H -2.446635 2.019083 -2.374477
H 2.014992 -2.000159 -0.959828
H -0.045875 -2.666055 0.063901
H 2.130593 -0.767439 1.839035
H 3.080679 -2.858069 1.382904
