48
cell (100, -170) s_271 rnd263 xtb E -84.859650150
C 5.560230 -1.046027 0.465321
O 4.831050 0.159007 0.687597
C 3.465764 -0.011358 0.822563
O 2.916380 -0.417335 -0.411885
C 1.526255 -0.649800 -0.344823
C 1.090754 -1.125533 -1.739400
O 1.288576 -0.148870 -2.723504
C 0.736242 0.602241 0.078835
O -0.588314 0.132258 0.288541
C -1.590114 1.108776 0.475268
O -2.314924 1.337883 -0.701543
C -2.984667 0.198666 -1.229054
C -3.715925 0.669587 -2.493443
O -4.586786 1.739040 -2.232492
C -3.963032 -0.393458 -0.208262
O -4.483624 -1.583187 -0.746786
C -3.229455 -0.667765 1.115300
O -4.099708 -1.218575 2.073552
C -2.532197 0.610174 1.597572
O -1.851847 0.425874 2.807351
C 1.338471 1.238081 1.342378
O 0.795229 2.523263 1.519341
C 2.866982 1.336821 1.239545
O 3.338503 1.748627 2.495022
H 5.243527 -1.519638 -0.464416
H 5.412874 -1.735944 1.300816
H 6.601726 -0.745526 0.402020
H 3.234536 -0.778780 1.592049
H 1.314925 -1.442062 0.389335
H 1.642400 -2.041560 -1.980869
H 0.021591 -1.339748 -1.719701
H 2.235374 0.050658 -2.770663
H 0.748099 1.343883 -0.731017
H -1.155061 2.073949 0.746070
H -2.256395 -0.576589 -1.499762
H -2.969896 0.949748 -3.246032
H -4.327622 -0.152393 -2.867266
H -4.061617 2.471282 -1.877307
H -4.774214 0.333509 -0.037356
H -4.914621 -2.077253 -0.030775
H -2.470222 -1.438377 0.932884
H -4.670653 -0.527424 2.439657
H -3.273041 1.394187 1.788559
H -1.264919 -0.338936 2.720990
H 1.092962 0.604706 2.208869
H 1.235526 2.937866 2.278326
H 3.125696 2.069353 0.460817
H 4.304447 1.818428 2.466332
