48
 energy: -84.869255337480 gnorm: 0.000380659568 xtb: 6.7.1 (edcfbbe)
C            4.50489121761513        0.47384469799200        1.70543671734297
O            3.71102403211949       -0.40104269163040        0.91323630982225
C            3.74264895996532       -0.12175611173660       -0.45294660003975
O            2.98136125785286        1.01905077684827       -0.78153487271484
C            1.66333276883965        0.61454407885094       -1.11043376232361
C            0.81930959150573        1.77026390301877        0.99179413542439
O           -0.06407186884981        2.76632623293453        0.53627398377233
C            0.75429192571022        0.48689266104905        0.13137721461454
O           -0.55563480240087        0.29885457983698       -0.38030289872898
C           -1.41283182491605       -0.63516338916393        0.26076225892702
O           -0.74200951094760       -1.78015616739722        0.64631801657941
C           -2.16261549149388       -0.00104822761812        1.44846890784636
C           -2.78997723335273       -1.06721952931460        2.35706954820451
O           -3.56488535158441       -0.50997097210257        3.38822418228926
C           -3.22649118717581        0.90212414959863        0.79498478956294
O           -2.92799756653345        2.27114587283521        0.87196534002069
C           -3.37912987644022        0.41078106355185       -0.67122872114757
O           -4.70284085186173        0.11541292244861       -1.04028966334327
C           -2.53422659878507       -0.86413039640393       -0.77894728969742
O           -1.98405088749284       -1.08990203817581       -2.04829851533809
C            1.84879644195226       -0.73322094037625       -1.85308074062090
O            0.81021613160036       -1.66203765973101       -1.73629543613169
C            3.13027167542155       -1.31040064460600       -1.21269242565997
O            4.05838802455209       -1.78884686519224       -2.14250706195081
H            4.18589666382040        1.51028555382958        1.57714028623620
H            5.55896864829488        0.37986533736938        1.42975371064556
H            4.35409099155039        0.15689934747103        2.73321179113299
H            4.77081010445723        0.07475080671060       -0.78955928071973
H            1.24871233546671        1.38315517130104       -1.76673196444940
H            1.85293723511700        2.13019267220130        1.00006047464711
H            0.51834936606550        1.55081685245695        2.01751818997004
H            0.24666492630362        3.10863058107769       -0.31242834897047
H            1.07217218524753       -0.37089091979379        0.73374931450155
H           -0.26835648097509       -2.14112916637239       -0.13066364013014
H           -1.47964357342949        0.60799932742593        2.04444251800562
H           -1.99586414266266       -1.70778068425929        2.75764215389783
H           -3.47747708295889       -1.69032580165649        1.78229038492521
H           -3.00007529663649        0.02006951284246        3.96791528874900
H           -4.18121456475808        0.78179977491912        1.31967045097498
H           -1.98638666273467        2.42354736976984        0.66401965315059
H           -2.94704355744950        1.16939970073916       -1.33919565330773
H           -5.24052943782673        0.91730122528383       -0.98161353937932
H           -3.14054997452865       -1.72044689392963       -0.45873364962047
H           -2.70492167149261       -1.23925521870140       -2.67741680067921
H            2.06564002134726       -0.51966081895700       -2.90999869384413
H           -0.01702991086960       -1.29427601914183       -2.10182920374043
H            2.85495282873652       -2.08075449977680       -0.48232739137465
H            3.73212614134739       -2.61454226668670       -2.53078671259545
