48
-84.81782244125
C 5.790648 1.007977 -0.855665
O 4.699526 1.577277 -0.158654
C 3.646921 0.713414 0.051347
O 3.004524 0.494482 -1.192848
C 1.830473 -0.283553 -1.132948
C 1.332986 -0.413441 -2.579692
O 1.042475 0.839932 -3.132748
C 0.770456 0.400462 -0.245739
O -0.390054 -0.412839 -0.197593
C -1.580533 0.151807 -0.691532
O -2.453606 -0.895048 -0.990465
C -2.809299 -1.675710 0.142085
C -3.701286 -2.818068 -0.363328
O -4.007463 -3.740403 0.656747
C -3.537852 -0.823012 1.195956
O -3.798699 -1.540997 2.375828
C -2.661740 0.379680 1.561514
O -3.342088 1.289154 2.396363
C -2.288383 1.121823 0.278116
O -1.499797 2.256605 0.552890
C 1.375835 0.552357 1.153436
O 0.525838 1.160607 2.088706
C 2.691803 1.349803 1.066796
O 3.314640 1.363313 2.320985
H 5.492167 0.681849 -1.855442
H 6.200899 0.155381 -0.303137
H 6.539103 1.793090 -0.929561
H 3.997318 -0.260178 0.454322
H 2.045000 -1.281524 -0.721208
H 0.410368 -0.995823 -2.599515
H 2.103016 -0.930144 -3.168871
H 1.825011 1.392615 -3.006494
H 0.533329 1.385737 -0.661240
H -1.389246 0.667022 -1.644431
H -1.899930 -2.091279 0.601867
H -3.206599 -3.302411 -1.211855
H -4.656045 -2.413484 -0.705609
H -3.204269 -4.213956 0.904112
H -4.479568 -0.448210 0.758613
H -4.208040 -2.384131 2.124744
H -1.749477 0.018755 2.059425
H -3.711735 0.778894 3.126509
H -3.216683 1.435639 -0.224140
H -1.985328 2.756851 1.225173
H 1.603475 -0.447108 1.550495
H -0.093219 1.739814 1.607412
H 2.477126 2.376941 0.730005
H 2.618001 1.530032 2.972750
