48
-84.852212165178
C 5.643077 1.133766 -0.466649
O 4.527368 1.268671 0.409160
C 3.452739 0.445808 0.124697
O 2.866734 0.821978 -1.102672
C 1.723395 0.051514 -1.425496
C 1.268353 0.483612 -2.825109
O 2.230784 0.216990 -3.808753
C 0.597806 0.251130 -0.386705
O -0.481459 -0.604961 -0.733038
C -1.768639 -0.118092 -1.061934
O -2.639931 -1.193232 -0.883841
C -2.810435 -1.561885 0.484965
C -3.675901 -2.830501 0.490753
O -3.818173 -3.374452 1.779797
C -3.472325 -0.418320 1.270756
O -3.590123 -0.705482 2.641194
C -2.617567 0.848225 1.133637
O -3.284690 1.984768 1.640729
C -2.348761 1.118284 -0.347680
O -1.552130 2.255596 -0.550752
C 1.169743 -0.181762 0.976396
O 0.235787 0.010411 2.004125
C 2.449416 0.607065 1.273706
O 2.970115 0.119835 2.482453
H 5.387802 1.478132 -1.468687
H 5.971737 0.091782 -0.505388
H 6.420722 1.760556 -0.039941
H 3.773248 -0.616805 0.059247
H 1.991225 -1.016054 -1.446895
H 1.014567 1.550107 -2.797587
H 0.384753 -0.094046 -3.097978
H 3.035458 0.709542 -3.593161
H 0.287936 1.295499 -0.356153
H -1.793455 0.091630 -2.145055
H -1.827227 -1.765209 0.931559
H -3.242113 -3.547866 -0.211739
H -4.681033 -2.577058 0.146303
H -2.995655 -3.812320 2.042104
H -4.465291 -0.218006 0.832725
H -3.966364 -1.598518 2.739858
H -1.671948 0.694481 1.665179
H -3.532330 1.801813 2.558533
H -3.330559 1.272365 -0.829662
H -1.939031 2.976646 -0.026562
H 1.423854 -1.252489 0.909153
H 0.692780 -0.130690 2.850210
H 2.202559 1.675826 1.352725
H 3.783179 0.601713 2.694959
