48
Coordinates from ORCA-job 3_opt_3c E -1337.095542567848
  C           5.69555587573637     -0.89504156183074      0.32526692529271
  O           4.92276363129738      0.28472551319090      0.60444667917446
  C           3.59883459035472      0.01476476079838      0.91856269550008
  O           2.91930027007374     -0.36681010370832     -0.28237781536834
  C           1.56107190076923     -0.75853358972683     -0.05013455032044
  C           1.06168631513752     -1.33719783434199     -1.36114718671554
  O           1.85067380540745     -2.45099778238212     -1.77705353232338
  C           0.76614478768006      0.46568926839765      0.41825888167032
  O          -0.56339958763546      0.02504596801499      0.73339912525075
  C          -1.57562034693802      0.99582259166958      0.56341157702090
  O          -1.97058146560806      1.13207262980750     -0.79321744086439
  C          -2.58435337344325     -0.03956087774253     -1.37191125523316
  C          -2.87602513670840      0.31696079006605     -2.81597404575957
  O          -1.67841233408816      0.56677430907053     -3.55463587900747
  C          -3.83728774978719     -0.41723847746299     -0.58218526574715
  O          -4.48136269530676     -1.57386471905788     -1.12119296082231
  C          -3.46475999504518     -0.63123489308932      0.88342235490289
  O          -4.61893609216241     -0.85326586052446      1.69464417932231
  C          -2.77816891306879      0.61392855727453      1.42513033722424
  O          -2.34189774664582      0.45385399571897      2.77047741491872
  C           1.44716683901206      1.03422908950896      1.66813308262011
  O           0.83150869959794      2.22762257480152      2.16122696593296
  C           2.94352305022307      1.27881505639416      1.45063781855526
  O           3.57231220110702      1.63817132881918      2.67582058497036
  H           5.34400907103331     -1.39077965269952     -0.58664675728547
  H           5.64366391901897     -1.59668560255721      1.16836557859190
  H           6.72647648103146     -0.56440177249815      0.18705702285196
  H           3.52165469453835     -0.80843898421967      1.65683826478413
  H           1.52526318566421     -1.53549281523204      0.73369872344804
  H           1.05317993941583     -0.54601418533048     -2.12826693202557
  H           0.04294620575742     -1.70786217212732     -1.22806169079408
  H           2.76542301703459     -2.14294943559337     -1.83362465715104
  H           0.74357956902852      1.21652143935869     -0.38768202957972
  H          -1.21201855969679      1.98834435676906      0.84920036002259
  H          -1.87556698174772     -0.88175667555735     -1.34303403115228
  H          -3.54805525975452      1.18937459188630     -2.84506565459422
  H          -3.37739233139305     -0.52536779005604     -3.30051087070717
  H          -1.21384718330779      1.28748566146372     -3.10854776863942
  H          -4.57537580570896      0.39399111651584     -0.65105916767268
  H          -3.85350157696189     -2.31081669792206     -1.09318698859737
  H          -2.77654790607940     -1.49217331401810      0.95582914811123
  H          -5.06310038582678     -1.64184784443638      1.35508862644664
  H          -3.49081344302474      1.45252570470224      1.35198727975299
  H          -3.12965167497252      0.28986840364091      3.30562954494561
  H           1.32886688052000      0.29813916587614      2.47628623638350
  H           0.92605977631691      2.91755398300974      1.48742376341374
  H           3.07918717240066      2.07093052408248      0.69187517643695
  H           3.01582166675487      2.31512226127682      3.08688013281541
