48
cell 100,-110 xtb/ALPB scan2 frame
C 5.655804 0.918467 0.605554
O 4.945358 -0.103174 -0.088601
C 3.618796 0.182133 -0.340474
O 2.914089 0.137135 0.885350
C 1.517351 0.341241 0.781525
C 0.944430 0.301938 2.212219
O 0.606921 1.569693 2.711728
C 0.887097 -0.730615 -0.125213
O -0.479101 -0.441538 -0.375858
C -1.455440 -1.263208 0.200085
O -2.003481 -0.684877 1.351235
C -2.632837 0.574828 1.106373
C -3.049029 1.174802 2.459973
O -2.261973 2.270859 2.844144
C -3.814623 0.370210 0.146485
O -4.543273 1.544161 -0.093028
C -3.285603 -0.229385 -1.167995
O -4.329281 -0.528213 -2.064150
C -2.535283 -1.529210 -0.863907
O -1.893023 -2.052593 -1.996269
C 1.580646 -0.755346 -1.493281
O 1.154288 -1.850602 -2.263315
C 3.102810 -0.860853 -1.341082
O 3.746060 -0.620032 -2.562042
H 5.247675 1.055959 1.608017
H 5.607380 1.858823 0.049577
H 6.681685 0.566505 0.660384
H 3.506099 1.190675 -0.791323
H 1.312799 1.325447 0.329827
H 1.681200 -0.198507 2.848861
H 0.016751 -0.272430 2.222563
H 1.407636 2.087431 2.875720
H 0.996710 -1.714888 0.347028
H -1.023254 -2.217486 0.527388
H -1.902376 1.247290 0.631842
H -3.016298 0.373484 3.207407
H -4.069357 1.558246 2.387604
H -1.329772 2.004336 2.931930
H -4.524640 -0.334457 0.595030
H -3.940292 2.270571 -0.310083
H -2.579877 0.477610 -1.634070
H -4.981613 0.188737 -2.028997
H -3.252032 -2.255860 -0.453711
H -2.551565 -2.124720 -2.705678
H 1.345270 0.188223 -2.011751
H 0.180479 -1.875270 -2.279383
H 3.358785 -1.855835 -0.950663
H 3.437896 -1.279712 -3.203488
