48
-84.847315486481
C 5.643233 0.941043 0.573643
O 4.950476 -0.127056 -0.061226
C 3.628114 0.140327 -0.344493
O 2.912454 0.190351 0.875166
C 1.523580 0.404510 0.742230
C 0.925333 0.470282 2.163187
O 0.513160 1.758970 2.536605
C 0.883737 -0.721134 -0.088206
O -0.475489 -0.414449 -0.341966
C -1.454799 -1.294049 0.130768
O -2.024852 -0.819237 1.319483
C -2.631198 0.464455 1.163092
C -3.040689 0.985072 2.552752
O -2.389940 2.176492 2.902680
C -3.800208 0.348707 0.174206
O -4.519698 1.542216 0.017526
C -3.252155 -0.142424 -1.178219
O -4.284341 -0.349926 -2.112285
C -2.515747 -1.468147 -0.969697
O -1.857380 -1.905077 -2.129528
C 1.586894 -0.837755 -1.447623
O 1.140686 -1.957914 -2.168309
C 3.104217 -0.968615 -1.268157
O 3.761959 -0.843850 -2.498700
H 5.207011 1.158074 1.550957
H 5.616086 1.839084 -0.051665
H 6.667608 0.596995 0.687711
H 3.520134 1.114316 -0.870897
H 1.333434 1.355647 0.217600
H 1.673915 0.070464 2.855791
H 0.029878 -0.152314 2.213304
H 1.284233 2.329479 2.651598
H 0.981401 -1.672055 0.449902
H -1.023999 -2.272777 0.380196
H -1.884792 1.155274 0.740700
H -2.843031 0.187847 3.280107
H -4.108222 1.217183 2.560457
H -1.427401 2.038348 2.906748
H -4.520920 -0.387775 0.549997
H -3.907481 2.283797 -0.081937
H -2.533263 0.596973 -1.569772
H -4.940130 0.352303 -1.993589
H -3.244053 -2.221225 -0.631901
H -2.492142 -1.869243 -2.860161
H 1.381991 0.085411 -2.015339
H 0.170025 -1.924856 -2.237819
H 3.330682 -1.936568 -0.797320
H 3.401690 -1.517179 -3.094112
