48
 energy: -84.847300294236 gnorm: 0.000315597267 xtb: 6.7.1 (edcfbbe)
C            5.62526377948886       -1.25597436938992        0.03615173757340
O            4.93949180760375       -0.13060493806421        0.56949641866315
C            3.58671380169347       -0.31601982755829        0.75988913710701
O            2.94557185980330       -0.31647732256995       -0.50015483422813
C            1.54551963207615       -0.49545642471795       -0.44422840565539
C            1.06843716244567       -0.54833696002152       -1.90298983482055
O            1.47110653812634       -1.72431245540352       -2.54661607840355
C            0.85531806442137        0.63519850654256        0.34488567945674
O           -0.50734260150509        0.28283274286352        0.53449036673739
C           -1.49297588483069        1.22172035574791        0.20783183657970
O           -2.06476863154409        0.95948897778554       -1.04601597981438
C           -2.72591064553006       -0.30238000869199       -1.14428532993705
C           -3.33698458730343       -0.36806925834779       -2.55095119606630
O           -2.36764924529184       -0.31675828130720       -3.56109563071210
C           -3.81000510919680       -0.47347717533171       -0.06894083083743
O           -4.39496122306277       -1.74910012572395       -0.10405057065496
C           -3.22793393101987       -0.17004618822858        1.31985186719555
O           -4.22796817353915       -0.17639673727753        2.31024600733609
C           -2.58725910246886        1.21905225957632        1.29031423944215
O           -2.02936498942899        1.58584860749422        2.51622260296288
C            1.52722646656563        0.80298845136298        1.72098049074438
O            1.08045621914882        1.92952378138646        2.42787375582432
C            3.06296648279713        0.83796208713602        1.62048188645654
O            3.62921499837216        0.73182256247647        2.89823701488319
H            5.27855076761748       -1.47987688733245       -0.97448420421404
H            5.48281382882015       -2.13129098901101        0.67741658226009
H            6.67489436749464       -0.97527109360257        0.01698790861991
H            3.38001051203211       -1.27662690879313        1.27861812275728
H            1.30912485947962       -1.44879497869570        0.05529698334602
H            1.45846229620902        0.33771007303580       -2.42024809216392
H           -0.02031943153481       -0.53661769199978       -1.93845395988422
H            2.43649585045133       -1.75358292055509       -2.55106070296091
H            0.93555660556786        1.57128703779838       -0.22438434893352
H           -1.07056224418265        2.23068916473438        0.12521721079623
H           -1.98121912329371       -1.10478458294244       -1.02580079239729
H           -4.05444476572756        0.45610191473219       -2.65420914745020
H           -3.86336610879886       -1.31694286777853       -2.66819543549202
H           -1.90315606718238        0.52679652780591       -3.48737399540148
H           -4.63083524908952        0.22769399800583       -0.26148707287350
H           -3.70906603084494       -2.42698484818993       -0.02463087038720
H           -2.44519726197240       -0.90684989422818        1.56460022493530
H           -4.82237771291021       -0.92030426914893        2.13705137329655
H           -3.35630978403944        1.94940506475464        0.98390612455500
H           -2.65711271903839        1.33965215971528        3.21101954623045
H            1.23520931739750       -0.05278386859050        2.34084555671342
H            1.23675139849666        2.73185387424034        1.91147405103425
H            3.38363095846934        1.77404940789909        1.13285735421368
H            3.13830482359912        1.32243793074079        3.49090190690076
