48
 energy: -84.853838474758 gnorm: 0.000175284329 xtb: 6.7.1 (edcfbbe)
C            4.70611025784948        0.67121103810123        0.54128670286387
O            3.63171546295654        0.26551554292859       -0.29954428260419
C            3.10613451696619        1.29781605057781       -1.08959072508552
O            2.49720525973854        2.30260888352567       -0.32532456843670
C            1.10631137308014        2.12336577987890       -0.05902077915392
C            0.79810493720038        2.92934139545457        1.20718908720680
O            0.98328441058907        4.30623743801219        1.01561458069915
C            0.75359414538014        0.63654854842907        0.10565947724498
O           -0.62688220102035        0.56595040531508        0.43916090530020
C           -1.03715075381715       -0.18722559048263        1.55815599202848
O           -2.42401818854663       -0.05368379225206        1.62968613158078
C           -3.10595002494896       -0.61409013327220        0.50895100891220
C           -4.59963326555912       -0.32184784906941        0.71974333609982
O           -5.37815189216743       -0.70835218220487       -0.38543837050458
C           -2.84033957627842       -2.12501423895384        0.39377659685100
O           -3.38283721224638       -2.66345969602827       -0.78589257048616
C           -1.32913656072157       -2.39469775501752        0.37946566460282
O           -1.04700774524434       -3.76863774567753        0.51234460827055
C           -0.68794275081179       -1.68709860740679        1.57499662917586
O            0.69561911472677       -1.88682170866702        1.65180657638950
C            1.02032419993401       -0.08109907190526       -1.24155803302835
O            1.33674716315124       -1.43457208091523       -1.09475569678027
C            2.11216696054849        0.64553967364593       -2.06115231237117
O            1.50366635845704        1.58646606094899       -2.90288323132185
H            4.38555241152095        1.46632960295317        1.21701714537544
H            5.54630312189002        1.02222203503179       -0.06407615263685
H            4.98985994509681       -0.21171082009657        1.10596350220176
H            3.92423894525189        1.80977036556399       -1.62478930140831
H            0.52149694646504        2.52987635325323       -0.89470956563312
H            1.43442915773737        2.56320498366018        2.02501172457848
H           -0.25078810845947        2.78902930710816        1.47275488347330
H            1.87498890427682        4.44791577624005        0.66456594119145
H            1.36314801624143        0.18921012881728        0.89589482691832
H           -0.64175396302286        0.27169761507640        2.47891473768762
H           -2.75066683574999       -0.12850710649135       -0.41051395328467
H           -4.71402655780369        0.74047833475206        0.95237915205970
H           -4.95878014159454       -0.90128013699963        1.57319509670178
H           -5.26816150143231       -0.06784274165960       -1.10263721211330
H           -3.26617834985129       -2.62851657865601        1.27811215872833
H           -4.31809812649941       -2.39719270943705       -0.84403638313667
H           -0.89903766044522       -2.00961171704208       -0.55370456150199
H           -1.47843104786848       -4.24020481787574       -0.21466766714210
H           -1.16828605262919       -2.08249342189479        2.48764975095827
H            0.85160175777600       -2.83642377511312        1.52123207428528
H            0.09481651593600       -0.03815403943666       -1.82740795802355
H            2.14656797228495       -1.50586325838987       -0.56610611192135
H            2.64421042982117       -0.12186821663392       -2.63980067844217
H            2.14505834769448        1.93592899562235       -3.53943372805861
