48
 energy: -84.813555623098 gnorm: 0.000326898397 xtb: 6.7.1 (edcfbbe)
C            5.69278073373861       -0.49369739104867        0.23701311220935
O            4.83109832999148        0.54823186880556        0.65272134891929
C            3.58140365096961        0.13256061195145        1.05507765232017
O            2.83128924596440       -0.21098640593934       -0.09515861148416
C            1.51963295794754       -0.65806548002772        0.18412882301320
C            0.97109753645993       -1.18880709139648       -1.14368527079661
O            1.87783246074693       -2.05394330241413       -1.76358902470442
C            0.70117229436710        0.49219835867456        0.79737784554824
O           -0.61597129112746        0.07964842570337        1.12938265683187
C           -1.64845748582680        0.92302120765726        0.69998604488077
O           -1.72565826135165        1.09437512752708       -0.68982084039068
C           -2.27312702711525        0.02222075025783       -1.44543893010832
C           -2.42133853969697        0.53575964576374       -2.88627255192877
O           -2.77058743553476       -0.49402589820297       -3.77985188881624
C           -3.61345556572261       -0.48327548646163       -0.89187392698474
O           -4.04308081171441       -1.64118575964610       -1.56407002773819
C           -3.43162712854479       -0.83255297075497        0.58745123420186
O           -4.63516106867241       -1.26312687836402        1.17362394154195
C           -2.96959688114089        0.43045153877209        1.31356924203631
O           -2.80132542137335        0.22739266912621        2.68205294969048
C            1.41503212879993        1.00674484726307        2.05874677032284
O            0.81614076847366        2.16272668557654        2.59166041516591
C            2.90855014239883        1.28541725848145        1.80691266901817
O            3.57111459603950        1.46783585040567        3.02697850261668
H            5.30587277983521       -0.99938230675443       -0.65201209585440
H            5.83062451982689       -1.22642228678822        1.03935634393295
H            6.64296673713335       -0.01860727371906        0.00565223027782
H            3.64235878647053       -0.74818583290217        1.72728446010066
H            1.56296340779394       -1.48285525152754        0.91426755133761
H            0.74205351421251       -0.33483449047457       -1.79857168445584
H            0.07030456850649       -1.77250100273446       -0.95089135796565
H            2.74486640068778       -1.62984528018331       -1.71739210431777
H            0.65201352454578        1.30224067058834        0.05293552814171
H           -1.46031848754811        1.94329241026921        1.07391737296839
H           -1.58760213695603       -0.83619011440449       -1.44026746625147
H           -1.48919730626831        1.02930375959293       -3.18231686633708
H           -3.22895587138782        1.26941027967958       -2.93333922603620
H           -2.02244473648493       -1.09534178923280       -3.87928418067077
H           -4.37296730396062        0.31228891548152       -0.97539511612210
H           -4.00116636792334       -1.46538837939441       -2.51755136799748
H           -2.66058224883733       -1.61220001282221        0.68588903176438
H           -5.02336126613306       -1.91307523952785        0.57480187477833
H           -3.72663411005099        1.21543456643330        1.13569953201299
H           -3.52377823988952       -0.34747991254667        2.96910101172978
H            1.31247035446628        0.25058590250723        2.84465361356269
H            0.80083501020472        2.85380433005998        1.91745258838682
H            3.00972043404385        2.18419226746627        1.17363373579568
H            3.01220083382506        2.03283354251016        3.57893767031629
