48
 energy: -84.792122755206 gnorm: 0.000565845660 xtb: 6.7.1 (edcfbbe)
C            5.56199412514945        1.76865096218177       -0.61101889188539
O            4.86659884341317        0.58814262752578       -0.26064045616762
C            3.58185645715320        0.51473771067163       -0.75660007076623
O            2.76542542636144        1.40258277414810       -0.02495332280948
C            1.42230572434035        1.45917065524710       -0.46724993867687
C            0.73917424998076        2.52742487826676        0.39251119350475
O            1.36877514228194        3.77128995018463        0.25628778909888
C            0.73939037628507        0.08886877624691       -0.33257236677369
O           -0.50036025901657        0.12067486566894       -1.02614535835414
C           -1.65734472270083       -0.34217900112596       -0.40044926962616
O           -1.39411357237605       -0.80675375095018        0.89666627127478
C           -2.44669788197229       -1.57563966298551        1.45865536291486
C           -2.46123634960403       -3.02143413483395        0.91436496564156
O           -1.19577387042258       -3.61140896046197        0.95078204025008
C           -3.80626677907417       -0.87489389831943        1.27756630237136
O           -4.64764009863438       -1.00116701439896        2.39589298024581
C           -3.56382781890312        0.60597756902234        0.94604014277658
O           -4.77991066574155        1.29856371564209        0.81881314452089
C           -2.78110467997394        0.74144617767991       -0.37142259175516
O           -2.23916592188392        2.02336175263828       -0.49472655476514
C            1.59340371289585       -1.05182827239461       -0.91233810016064
O            1.12134899620196       -2.31405126259727       -0.47957838843400
C            3.08764750317094       -0.92553281094339       -0.57826895388851
O            3.84198977450253       -1.76229336485794       -1.41132632098264
H            5.06844592051160        2.65523720077489       -0.20360967775885
H            5.63925432882864        1.86478037347380       -1.69967378848767
H            6.55464992517464        1.66785157474690       -0.17888893975821
H            3.54668614748122        0.77984523041262       -1.83375114835660
H            1.39088009283917        1.76077404347136       -1.52577644884268
H            0.76587807099805        2.19527894480500        1.44072413948327
H           -0.29347636358679        2.64576075031875        0.06674799129395
H            2.31154675944284        3.62781096699685        0.40507529547971
H            0.57463288569948       -0.10430226906385        0.73320938448007
H           -2.03566914591611       -1.18022361886150       -1.01807717107646
H           -2.18731200314957       -1.61272031941140        2.52385614161052
H           -2.87230509179436       -3.03219436157861       -0.10510272659149
H           -3.11155834534797       -3.62204754973255        1.55402801383270
H           -0.61490533851732       -3.14305874721340        0.33161855551568
H           -4.36977664195048       -1.33028200991701        0.45477066909231
H           -4.19170207437355       -0.66760974077006        3.17950576056721
H           -2.95845504785870        1.05808100409370        1.75180715698455
H           -5.42136965890194        0.87818187641043        1.40872350756908
H           -3.47523542927149        0.54583417417029       -1.20318504042577
H           -2.96682711954774        2.65362697197639       -0.41716979199148
H            1.46816793195758       -1.05443939414039       -2.00075355016897
H            1.28830329851850       -2.39031504053713        0.47075647704146
H            3.24912365912046       -1.18565699519069        0.48267211580279
H            3.42455249730826       -2.63392719608316       -1.41430931454203
