      -----------------------------------------------------------      
     |                   =====================                   |     
     |                           x T B                           |     
     |                   =====================                   |     
     |                         S. Grimme                         |     
     |          Mulliken Center for Theoretical Chemistry        |     
     |                    University of Bonn                     |     
      -----------------------------------------------------------      

   * xtb version 6.7.1 (edcfbbe) compiled by 'conda@5dfe00f5fb80' on 2026-06-10

   xtb is free software: you can redistribute it and/or modify it under
   the terms of the GNU Lesser General Public License as published by
   the Free Software Foundation, either version 3 of the License, or
   (at your option) any later version.
   
   xtb is distributed in the hope that it will be useful,
   but WITHOUT ANY WARRANTY; without even the implied warranty of
   MERCHANTABILITY or FITNESS FOR A PARTICULAR PURPOSE.  See the
   GNU Lesser General Public License for more details.
   
   Cite this work as:
   * C. Bannwarth, E. Caldeweyher, S. Ehlert, A. Hansen, P. Pracht,
     J. Seibert, S. Spicher, S. Grimme, WIREs Comput. Mol. Sci., 2020, 11,
     e01493. DOI: 10.1002/wcms.1493
   
   for GFN2-xTB:
   * C. Bannwarth, S. Ehlert and S. Grimme., J. Chem. Theory Comput., 2019,
     15, 1652-1671. DOI: 10.1021/acs.jctc.8b01176
   for GFN1-xTB:
   * S. Grimme, C. Bannwarth, P. Shushkov, J. Chem. Theory Comput., 2017,
     13, 1989-2009. DOI: 10.1021/acs.jctc.7b00118
   for GFN0-xTB:
   * P. Pracht, E. Caldeweyher, S. Ehlert, S. Grimme, ChemRxiv, 2019, preprint.
     DOI: 10.26434/chemrxiv.8326202.v1
   for GFN-FF:
   * S. Spicher and S. Grimme, Angew. Chem. Int. Ed., 2020, 59, 15665-15673.
     DOI: 10.1002/anie.202004239
   
   for ALPB and GBSA implicit solvation:
   * S. Ehlert, M. Stahn, S. Spicher, S. Grimme, J. Chem. Theory Comput.,
     2021, 17, 4250-4261. DOI: 10.1021/acs.jctc.1c00471
   
   for ddCOSMO and CPCM-X implicit solvation:
   * M. Stahn, S. Ehlert, S. Grimme, J. Phys. Chem. A,
     2023, XX, XXXX-XXXX. DOI: 10.1021/acs.jpca.3c04382
   
   for DFT-D4:
   * E. Caldeweyher, C. Bannwarth and S. Grimme, J. Chem. Phys., 2017,
     147, 034112. DOI: 10.1063/1.4993215
   * E. Caldeweyher, S. Ehlert, A. Hansen, H. Neugebauer, S. Spicher,
     C. Bannwarth and S. Grimme, J. Chem. Phys., 2019, 150, 154122.
     DOI: 10.1063/1.5090222
   * E. Caldeweyher, J.-M. Mewes, S. Ehlert and S. Grimme, Phys. Chem. Chem. Phys.
     2020, 22, 8499-8512. DOI: 10.1039/D0CP00502A
   
   for sTDA-xTB:
   * S. Grimme and C. Bannwarth, J. Chem. Phys., 2016, 145, 054103.
     DOI: 10.1063/1.4959605
   
   in the mass-spec context:
   * V. Asgeirsson, C. Bauer and S. Grimme, Chem. Sci., 2017, 8, 4879.
     DOI: 10.1039/c7sc00601b
   * J. Koopman and S. Grimme, ACS Omega 2019, 4, 12, 15120-15133.
     DOI: 10.1021/acsomega.9b02011
   
   for metadynamics refer to:
   * S. Grimme, J. Chem. Theory Comput., 2019, 155, 2847-2862
     DOI: 10.1021/acs.jctc.9b00143
   
   for SPH calculations refer to:
   * S. Spicher and S. Grimme, J. Chem. Theory Comput., 2021, 17, 1701-1714
     DOI: 10.1021/acs.jctc.0c01306
   
   for ONIOM refer to:
   * C. Plett, A. Katbashev, S. Ehlert, S. Grimme, M. Bursch,
     Phys. Chem. Chem. Phys., 2023, 25, 17860-17868. DOI: 10.1039/D3CP02178E
   
   for DIPRO refer to:
   * J. Kohn, N. Gildemeister, S. Grimme, D. Fazzi, A. Hansen,
     J. Chem. Phys., 2023, just accepted.
   
   for PTB refer to:
   * S. Grimme, M. Mueller, A. Hansen, J. Chem. Phys., 2023, 158, 124111.
     DOI: 10.1063/5.0137838
   
   with help from (in alphabetical order)
   P. Atkinson, C. Bannwarth, F. Bohle, G. Brandenburg, E. Caldeweyher
   M. Checinski, S. Dohm, S. Ehlert, S. Ehrlich, I. Gerasimov, C. Hölzer
   A. Katbashev, J. Kohn, J. Koopman, C. Lavigne, S. Lehtola, F. März, M. Müller,
   F. Musil, H. Neugebauer, J. Pisarek, C. Plett, P. Pracht, F. Pultar,
   J. Seibert, P. Shushkov, S. Spicher, M. Stahn, M. Steiner, T. Strunk,
   J. Stückrath, T. Rose, and J. Unsleber
   
 * started run on 2026/09/21 at 15:38:13.477     
   ID    Z sym.   atoms
    1    6 C      1, 3, 5, 6, 8, 10, 12, 13, 15, 17, 19, 21, 23
    2    8 O      2, 4, 7, 9, 11, 14, 16, 18, 20, 22, 24
    3    1 H      25-48
constraining angle 11 10 9 8 to  150.0000000°, actual value:  150.8601540°
constraining angle 10 9 8 5 to -120.0000000°, actual value: -118.6487816°

           -------------------------------------------------
          |                Calculation Setup                |
           -------------------------------------------------

          program call               : /media/aldo/Aldo/envs/chem/bin/xtb start.xyz --gfn 2 --alpb water --opt normal --input c.inp
          coordinate file            : start.xyz
          omp threads                :                     1


           -------------------------------------------------
          |                 G F N 2 - x T B                 |
           -------------------------------------------------

        Reference                      10.1021/acs.jctc.8b01176
      * Hamiltonian:
        H0-scaling (s, p, d)           1.850000    2.230000    2.230000
        zeta-weighting                 0.500000
      * Dispersion:
        s8                             2.700000
        a1                             0.520000
        a2                             5.000000
        s9                             5.000000
      * Repulsion:
        kExp                           1.500000    1.000000
        rExp                           1.000000
      * Coulomb:
        alpha                          2.000000
        third order                    shell-resolved
        anisotropic                    true
        a3                             3.000000
        a5                             4.000000
        cn-shift                       1.200000
        cn-exp                         4.000000
        max-rad                        5.000000

      * Solvation model:               ALPB
        Solvent                        water
        Parameter file                 internal GFN2-xTB/ALPB
        Dielectric constant                8.0200E+01
        Reference state                gsolv [1 M gas/solution]
        Free energy shift                  1.0808E-03 Eh       6.7819E-01 kcal/mol
        Temperature                        2.9815E+02 K
        Density                            1.0000E+00 kg/L
        Solvent mass                       1.8000E+01 g/mol
        Interaction kernel             P16
        Born radius scaling (c1)           1.4744E+00
        Born radii integrator          GBOBC
        Born offset                        0.0000E+00 a0       0.0000E+00 AA
        H-bond correction              true
        Ion screening                  false
        Surface tension                    1.0000E-05 Eh       1.5569E+01 dyn/cm
        Grid points                               230 per atom

          ...................................................
          :                      SETUP                      :
          :.................................................:
          :  # basis functions                 120          :
          :  # atomic orbitals                 120          :
          :  # shells                           72          :
          :  # electrons                       142          :
          :  max. iterations                   250          :
          :  Hamiltonian                  GFN2-xTB          :
          :  restarted?                      false          :
          :  GBSA solvation                   true          :
          :  PC potential                    false          :
          :  electronic temp.          300.0000000     K    :
          :  accuracy                    1.0000000          :
          :  -> integral cutoff          0.2500000E+02      :
          :  -> integral neglect         0.1000000E-07      :
          :  -> SCF convergence          0.1000000E-05 Eh   :
          :  -> wf. convergence          0.1000000E-03 e    :
          :  Broyden damping             0.4000000          :
          :  net charge                          0          :
          :  unpaired electrons                  0          :
          ...................................................

 iter      E             dE          RMSdq      gap      omega  full diag
   1    -85.3782149 -0.853782E+02  0.478E+00    9.80       0.0  T
   2    -85.4666873 -0.884725E-01  0.255E+00    9.57       1.0  T
   3    -85.4703548 -0.366750E-02  0.707E-01    9.64       1.0  T
   4    -85.4714930 -0.113812E-02  0.178E-01    9.63       1.0  T
   5    -85.4716480 -0.155013E-03  0.894E-02    9.65       1.0  T
   6    -85.4716824 -0.344299E-04  0.231E-02    9.65       1.0  T
   7    -85.4716854 -0.302676E-05  0.878E-03    9.65       1.6  T
   8    -85.4716861 -0.671924E-06  0.358E-03    9.65       4.0  T
   9    -85.4716862 -0.892487E-07  0.156E-03    9.65       9.3  T
  10    -85.4716862 -0.192300E-07  0.482E-04    9.65      30.0  T
  11    -85.4716862 -0.204852E-08  0.165E-04    9.65      87.3  T

   *** convergence criteria satisfied after 11 iterations ***

         #    Occupation            Energy/Eh            Energy/eV
      -------------------------------------------------------------
         1        2.0000           -0.7373123             -20.0633
       ...           ...                  ...                  ...
        65        2.0000           -0.4280060             -11.6466
        66        2.0000           -0.4255294             -11.5792
        67        2.0000           -0.4220936             -11.4858
        68        2.0000           -0.4170532             -11.3486
        69        2.0000           -0.4148534             -11.2887
        70        2.0000           -0.4116459             -11.2015
        71        2.0000           -0.4053554             -11.0303 (HOMO)
        72                         -0.0507577              -1.3812 (LUMO)
        73                         -0.0391219              -1.0646
        74                         -0.0167054              -0.4546
        75                         -0.0024855              -0.0676
        76                          0.0060784               0.1654
       ...                                ...                  ...
       120                          0.2980432               8.1102
      -------------------------------------------------------------
                  HL-Gap            0.3545977 Eh            9.6491 eV
             Fermi-level           -0.2280566 Eh           -6.2057 eV

 SCC (total)                   0 d,  0 h,  0 min,  0.221 sec
 SCC setup                      ...        0 min,  0.003 sec (  1.166%)
 Dispersion                     ...        0 min,  0.009 sec (  4.216%)
 classical contributions        ...        0 min,  0.000 sec (  0.111%)
 integral evaluation            ...        0 min,  0.017 sec (  7.732%)
 iterations                     ...        0 min,  0.129 sec ( 58.355%)
 molecular gradient             ...        0 min,  0.062 sec ( 27.940%)
 printout                       ...        0 min,  0.001 sec (  0.299%)

         :::::::::::::::::::::::::::::::::::::::::::::::::::::
         ::                     SUMMARY                     ::
         :::::::::::::::::::::::::::::::::::::::::::::::::::::
         :: total energy             -84.854135775430 Eh    ::
         :: total w/o Gsasa/hb       -84.826995515410 Eh    ::
         :: gradient norm              0.000276195649 Eh/a0 ::
         :: HOMO-LUMO gap              9.649094630723 eV    ::
         ::.................................................::
         :: SCC energy               -85.470983100847 Eh    ::
         :: -> isotropic ES            0.283758750313 Eh    ::
         :: -> anisotropic ES         -0.017677189615 Eh    ::
         :: -> anisotropic XC         -0.016962399644 Eh    ::
         :: -> dispersion             -0.046445345171 Eh    ::
         :: -> Gsolv                  -0.054816941271 Eh    ::
         ::    -> Gelec               -0.027676681251 Eh    ::
         ::    -> Gsasa                0.006081742343 Eh    ::
         ::    -> Ghb                 -0.034302762061 Eh    ::
         ::    -> Gshift               0.001080759698 Eh    ::
         :: repulsion energy           0.616651947034 Eh    ::
         :: add. restraining           0.000195378383 Eh    ::
         :: total charge               0.000000000000 e     ::
         :::::::::::::::::::::::::::::::::::::::::::::::::::::

      ----------------------------------------------------------- 
     |                   =====================                   |
     |                        A N C O P T                        |
     |                   =====================                   |
     |               Approximate Normal Coordinate               |
     |                Rational Function Optimizer                |
      ----------------------------------------------------------- 
      ----------------------------------------------------------- 
     |                   =====================                   |
     |                        A N C O P T                        |
     |                   =====================                   |
     |               Approximate Normal Coordinate               |
     |                Rational Function Optimizer                |
      ----------------------------------------------------------- 

          ...................................................
          :                      SETUP                      :
          :.................................................:
          :   optimization level            normal          :
          :   max. optcycles                   200          :
          :   ANC micro-cycles                  20          :
          :   degrees of freedom               138          :
          :.................................................:
          :   RF solver                   davidson          :
          :   write xtbopt.log                true          :
          :   linear?                        false          :
          :   energy convergence         0.5000000E-05 Eh   :
          :   grad. convergence          0.1000000E-02 Eh/α :
          :   maxmium RF displ.          1.0000000          :
          :   Hlow (freq-cutoff)         0.1000000E-01      :
          :   Hmax (freq-cutoff)         5.0000000          :
          :   S6 in model hess.         20.0000000          :
          ...................................................

generating ANC from exact Hessian ...
Using Lindh-Hessian (1995)
 Shifting diagonal of input Hessian by    9.5792264762564073E-003
 Lowest  eigenvalues of input Hessian
    0.000000    0.000000    0.000000    0.000000    0.000000    0.000000
    0.010000    0.010275    0.010568    0.011045    0.012113    0.012818
    0.013014    0.013635    0.014250    0.014796    0.015060    0.015882
 Highest eigenvalues
    1.532213    1.543836    1.564035    1.606135    1.664915    1.682858


........................................................................
.............................. CYCLE    1 ..............................
........................................................................

 iter      E             dE          RMSdq      gap      omega  full diag
   1    -85.4716862 -0.854717E+02  0.776E-05    9.65       0.0  T
   2    -85.4716862 -0.164846E-10  0.496E-05    9.65     290.9  T
   3    -85.4716862 -0.787281E-11  0.142E-05    9.65    1017.8  T
     SCC iter.                  ...        0 min,  0.061 sec
     gradient                   ...        0 min,  0.055 sec
 * total energy  :   -84.8541358 Eh     change       -0.1438281E-09 Eh
   gradient norm :     0.0002767 Eh/α   predicted     0.0000000E+00 (-100.00%)
   displ. norm   :     0.0154776 α      lambda       -0.9883700E-07
   maximum displ.:     0.0125904 α      in ANC's #2, #9, #10, ...

   *** GEOMETRY OPTIMIZATION CONVERGED AFTER 1 ITERATIONS ***

------------------------------------------------------------------------
 total energy gain   :        -0.0000000 Eh       -0.0000 kcal/mol
 total RMSD          :         0.0000000 a0        0.0000 Å
 total power (kW/mol):        -0.0000004 (step)   -0.0000 (real)
------------------------------------------------------------------------

 ANCopt (total)                0 d,  0 h,  0 min,  0.195 sec
 optimizer setup                ...        0 min,  0.000 sec (  0.069%)
 model hessian                  ...        0 min,  0.052 sec ( 26.711%)
 ANC generation                 ...        0 min,  0.004 sec (  2.206%)
 coordinate transformation      ...        0 min,  0.000 sec (  0.027%)
 single point calculation       ...        0 min,  0.137 sec ( 70.455%)
 optimization log               ...        0 min,  0.000 sec (  0.115%)
 hessian update                 ...        0 min,  0.000 sec (  0.001%)
 rational function              ...        0 min,  0.000 sec (  0.080%)

================
 final structure:
================
48
 xtb: 6.7.1 (edcfbbe)
C            5.75590700000000        0.76643800000000       -0.86161900000000
O            4.72191500000000        1.40752000000000       -0.11940600000000
C            3.57593000000000        0.65518800000000        0.06425300000000
O            2.94376800000000        0.43509200000000       -1.17915700000000
C            1.71715500000000       -0.26345200000000       -1.06850400000000
C            1.20575200000000       -0.51493100000000       -2.49308500000000
O            1.97426500000000       -1.46364500000000       -3.18080600000000
C            0.69671500000000        0.54011700000000       -0.23523900000000
O           -0.49683700000000       -0.20937800000000       -0.11294100000000
C           -1.68132500000000        0.34246000000000       -0.64726700000000
O           -2.49847500000000       -0.72251000000000       -1.02453100000000
C           -2.87728000000000       -1.54142600000000        0.08398300000000
C           -3.79529100000000       -2.63930100000000       -0.47604400000000
O           -4.12194900000000       -3.60379600000000        0.49388700000000
C           -3.58836300000000       -0.73281300000000        1.18578900000000
O           -3.78581900000000       -1.50500200000000        2.34397800000000
C           -2.75818100000000        0.49828300000000        1.58127000000000
O           -3.47131400000000        1.34459000000000        2.44977200000000
C           -2.43841600000000        1.27782900000000        0.30787500000000
O           -1.69533100000000        2.44350700000000        0.51509000000000
C            1.31504300000000        0.74194000000000        1.16090400000000
O            0.45558100000000        1.46843700000000        1.99063600000000
C            2.66672300000000        1.44942300000000        1.01348900000000
O            3.23191400000000        1.55263100000000        2.29338300000000
H            5.45078600000000        0.62455300000000       -1.89838900000000
H            6.00428600000000       -0.19853000000000       -0.41184200000000
H            6.60695100000000        1.43920200000000       -0.80829400000000
H            3.81664700000000       -0.32840300000000        0.52327900000000
H            1.88209100000000       -1.23186400000000       -0.57197300000000
H            1.18725700000000        0.44100300000000       -3.02997600000000
H            0.19540400000000       -0.92333000000000       -2.43599900000000
H            2.87746100000000       -1.12812500000000       -3.27060900000000
H            0.49751200000000        1.51386600000000       -0.69062300000000
H           -1.45574900000000        0.89143000000000       -1.57320500000000
H           -1.97374600000000       -1.98810100000000        0.52212200000000
H           -3.31147900000000       -3.08346100000000       -1.35035100000000
H           -4.73661700000000       -2.18718600000000       -0.79654000000000
H           -3.36794700000000       -4.19434600000000        0.63379300000000
H           -4.55560800000000       -0.37306600000000        0.79611200000000
H           -4.22763600000000       -2.33449900000000        2.08706400000000
H           -1.81649400000000        0.17503800000000        2.04645100000000
H           -3.75064100000000        0.82386100000000        3.21731000000000
H           -3.39183100000000        1.52962800000000       -0.18999900000000
H           -2.02212900000000        2.86434000000000        1.32536900000000
H            1.48974100000000       -0.25635700000000        1.59824100000000
H            0.96197900000000        1.74184200000000        2.77319200000000
H            2.50499300000000        2.44324700000000        0.57184700000000
H            4.08268000000000        2.01204900000000        2.23079100000000

 Bond Distances (Angstroems)
 ---------------------------
C1-O2=1.4251         C1-H25=1.0900        C1-H26=1.0932        C1-H27=1.0862        O2-C1=1.4251         O2-C3=1.3831         
C3-O2=1.3831         C3-O4=1.4121         C3-C23=1.5357        C3-H28=1.1118        O4-C3=1.4121         O4-C5=1.4159         
C5-O4=1.4159         C5-C6=1.5343         C5-C8=1.5432         C5-H29=1.1007        C6-C5=1.5343         C6-O7=1.4013         
C6-H30=1.0965        C6-H31=1.0913        O7-C6=1.4013         O7-H32=0.9677        C8-C5=1.5432         C8-O9=1.4147         
C8-C21=1.5402        C8-H33=1.0933        O9-C8=1.4147         O9-C10=1.4118        C10-O9=1.4118        C10-O11=1.3944       
C10-C19=1.5364       C10-H34=1.0998       O11-C10=1.3944       O11-C12=1.4293       C12-O11=1.4293       C12-C13=1.5368       
C12-C15=1.5406       C12-H35=1.0990       C13-C12=1.5368       C13-O14=1.4063       C13-H36=1.0935       C13-H37=1.0923       
O14-C13=1.4063       O14-H38=0.9679       C15-C12=1.5406       C15-O16=1.4059       C15-C17=1.5366       C15-H39=1.1031       
O16-C15=1.4059       O16-H40=0.9743       C17-C15=1.5366       C17-O18=1.4068       C17-C19=1.5269       C17-H41=1.0989       
O18-C17=1.4068       O18-H42=0.9687       C19-C10=1.5364       C19-C17=1.5269       C19-O20=1.3978       C19-H43=1.1047       
O20-C19=1.3978       O20-H44=0.9698       C21-C8=1.5402        C21-O22=1.3982       C21-C23=1.5327       C21-H45=1.1038       
O22-C21=1.3982       O22-H46=0.9714       C23-C3=1.5357        C23-C21=1.5327       C23-O24=1.4029       C23-H47=1.0995       
O24-C23=1.4029       O24-H48=0.9689       H25-C1=1.0900        H26-C1=1.0932        H27-C1=1.0862        H28-C3=1.1118        
H29-C5=1.1007        H30-C6=1.0965        H31-C6=1.0913        H32-O7=0.9677        H33-C8=1.0933        H34-C10=1.0998       
H35-C12=1.0990       H36-C13=1.0935       H37-C13=1.0923       H38-O14=0.9679       H39-C15=1.1031       H40-O16=0.9743       
H41-C17=1.0989       H42-O18=0.9687       H43-C19=1.1047       H44-O20=0.9698       H45-C21=1.1038       H46-O22=0.9714       
H47-C23=1.0995       H48-O24=0.9689       
 C  H  Rav=1.0975 sigma=0.0062  Rmin=1.0862  Rmax=1.1118    17
 C  C  Rav=1.5364 sigma=0.0043  Rmin=1.5269  Rmax=1.5432    10
 O  H  Rav=0.9698 sigma=0.0022  Rmin=0.9677  Rmax=0.9743     7
 O  C  Rav=1.4070 sigma=0.0114  Rmin=1.3831  Rmax=1.4293    15

 selected bond angles (degree)
 --------------------
H25-C1-O2=110.54               H26-C1-O2=110.34               H26-C1-H25=109.88              H27-C1-O2=105.32               
H27-C1-H25=110.28              H27-C1-H26=110.40              C3-O2-C1=115.19                O4-C3-O2=109.80                
C23-C3-O2=106.94               C23-C3-O4=111.09               H28-C3-O2=110.89               H28-C3-O4=108.82               
H28-C3-C23=109.30              C5-O4-C3=113.32                C6-C5-O4=107.28                C8-C5-O4=110.99                
C8-C5-C6=111.49                H29-C5-O4=109.85               H29-C5-C6=108.94               H29-C5-C8=108.28               
O7-C6-C5=112.57                H30-C6-C5=108.50               H30-C6-O7=111.05               H31-C6-C5=108.75               
H31-C6-O7=106.26               H31-C6-H30=109.65              H32-O7-C6=108.83               O9-C8-C5=109.19                
C21-C8-C5=106.99               C21-C8-O9=109.25               H33-C8-C5=111.06               H33-C8-O9=110.74               
H33-C8-C21=109.51              C10-O9-C8=117.91               O11-C10-O9=107.19              C19-C10-O9=114.59              
C19-C10-O11=110.15             H34-C10-O9=109.98              H34-C10-O11=105.88             H34-C10-C19=108.70             

 selected dihedral angles (degree)
 ---------------------------------
C3-O2-C1-H25= 67.39           C3-O2-C1-H26=305.65           C3-O2-C1-H27=186.50           O4-C3-O2-C1=294.13            
C23-C3-O2-C1=173.51           H28-C3-O2-C1= 54.42           C5-O4-C3-O2=183.49            C5-O4-C3-C23=301.56           
C5-O4-C3-H28= 61.94           C6-C5-O4-C3=184.03            C8-C5-O4-C3= 62.01            H29-C5-O4-C3=302.30           
O7-C6-C5-O4= 70.56            O7-C6-C5-C8=192.26            O7-C6-C5-H29=311.70           H30-C6-C5-O4=307.24           
H30-C6-C5-C8= 68.95           H30-C6-C5-H29=188.38          H31-C6-C5-O4=188.03           H31-C6-C5-C8=309.74           
H31-C6-C5-H29= 69.18          H32-O7-C6-C5=297.65           H32-O7-C6-H30= 59.54          H32-O7-C6-H31=178.72          
O9-C8-C5-O4=181.86            O9-C8-C5-C6= 62.32            O9-C8-C5-H29=302.50           C21-C8-C5-O4=299.99           
C21-C8-C5-C6=180.45           C21-C8-C5-H29= 60.63          H33-C8-C5-O4= 59.45           H33-C8-C5-C6=299.92           
H33-C8-C5-H29=180.09          C10-O9-C8-C5=241.35           C10-O9-C8-C21=124.65          C10-O9-C8-H33=  3.95          
O11-C10-O9-C8=150.86          C19-C10-O9-C8=273.41          H34-C10-O9-C8= 36.20          
           -------------------------------------------------
          |                Final Singlepoint                |
           -------------------------------------------------

          ...................................................
          :                      SETUP                      :
          :.................................................:
          :  # basis functions                 120          :
          :  # atomic orbitals                 120          :
          :  # shells                           72          :
          :  # electrons                       142          :
          :  max. iterations                   250          :
          :  Hamiltonian                  GFN2-xTB          :
          :  restarted?                      false          :
          :  GBSA solvation                   true          :
          :  PC potential                    false          :
          :  electronic temp.          300.0000000     K    :
          :  accuracy                    1.0000000          :
          :  -> integral cutoff          0.2500000E+02      :
          :  -> integral neglect         0.1000000E-07      :
          :  -> SCF convergence          0.1000000E-05 Eh   :
          :  -> wf. convergence          0.1000000E-03 e    :
          :  Broyden damping             0.4000000          :
          :  net charge                          0          :
          :  unpaired electrons                  0          :
          ...................................................

 iter      E             dE          RMSdq      gap      omega  full diag
   1    -85.4716862 -0.854717E+02  0.689E-06    9.65       0.0  T
   2    -85.4716862  0.127898E-12  0.461E-06    9.65    3132.8  T
   3    -85.4716862 -0.255795E-12  0.191E-06    9.65    7573.7  T

   *** convergence criteria satisfied after 3 iterations ***

         #    Occupation            Energy/Eh            Energy/eV
      -------------------------------------------------------------
         1        2.0000           -0.7373132             -20.0633
       ...           ...                  ...                  ...
        65        2.0000           -0.4280069             -11.6467
        66        2.0000           -0.4255303             -11.5793
        67        2.0000           -0.4220940             -11.4858
        68        2.0000           -0.4170548             -11.3486
        69        2.0000           -0.4148548             -11.2888
        70        2.0000           -0.4116472             -11.2015
        71        2.0000           -0.4053571             -11.0303 (HOMO)
        72                         -0.0507593              -1.3812 (LUMO)
        73                         -0.0391237              -1.0646
        74                         -0.0167057              -0.4546
        75                         -0.0024868              -0.0677
        76                          0.0060777               0.1654
       ...                                ...                  ...
       120                          0.2980419               8.1101
      -------------------------------------------------------------
                  HL-Gap            0.3545978 Eh            9.6491 eV
             Fermi-level           -0.2280582 Eh           -6.2058 eV

 SCC (total)                   0 d,  0 h,  0 min,  0.096 sec
 SCC setup                      ...        0 min,  0.002 sec (  2.004%)
 Dispersion                     ...        0 min,  0.001 sec (  0.636%)
 classical contributions        ...        0 min,  0.000 sec (  0.242%)
 integral evaluation            ...        0 min,  0.017 sec ( 17.685%)
 iterations                     ...        0 min,  0.019 sec ( 19.503%)
 molecular gradient             ...        0 min,  0.057 sec ( 59.249%)
 printout                       ...        0 min,  0.001 sec (  0.654%)

         :::::::::::::::::::::::::::::::::::::::::::::::::::::
         ::                     SUMMARY                     ::
         :::::::::::::::::::::::::::::::::::::::::::::::::::::
         :: total energy             -84.854135775576 Eh    ::
         :: total w/o Gsasa/hb       -84.826995145091 Eh    ::
         :: gradient norm              0.000277199424 Eh/a0 ::
         :: HOMO-LUMO gap              9.649096149949 eV    ::
         ::.................................................::
         :: SCC energy               -85.470983100993 Eh    ::
         :: -> isotropic ES            0.283760287060 Eh    ::
         :: -> anisotropic ES         -0.017678158827 Eh    ::
         :: -> anisotropic XC         -0.016962455402 Eh    ::
         :: -> dispersion             -0.046445372975 Eh    ::
         :: -> Gsolv                  -0.054818061146 Eh    ::
         ::    -> Gelec               -0.027677430662 Eh    ::
         ::    -> Gsasa                0.006081742343 Eh    ::
         ::    -> Ghb                 -0.034303132526 Eh    ::
         ::    -> Gshift               0.001080759698 Eh    ::
         :: repulsion energy           0.616651947034 Eh    ::
         :: add. restraining           0.000195378383 Eh    ::
         :: total charge              -0.000000000000 e     ::
         :::::::::::::::::::::::::::::::::::::::::::::::::::::

========================================================================
 RELAXED SCAN
------------------------------------------------------------------------
 output written to xtbscan.log
 scaning constraint 2
... step 1 ...
      ----------------------------------------------------------- 
     |                   =====================                   |
     |                        A N C O P T                        |
     |                   =====================                   |
     |               Approximate Normal Coordinate               |
     |                Rational Function Optimizer                |
      ----------------------------------------------------------- 
 current energy:         -84.85413578
    bias energy:           0.00019538
unbiased energy:         -84.85433115
... step 2 ...
      ----------------------------------------------------------- 
     |                   =====================                   |
     |                        A N C O P T                        |
     |                   =====================                   |
     |               Approximate Normal Coordinate               |
     |                Rational Function Optimizer                |
      ----------------------------------------------------------- 
 current energy:         -84.85549405
    bias energy:           0.00002776
unbiased energy:         -84.85552181
... step 3 ...
      ----------------------------------------------------------- 
     |                   =====================                   |
     |                        A N C O P T                        |
     |                   =====================                   |
     |               Approximate Normal Coordinate               |
     |                Rational Function Optimizer                |
      ----------------------------------------------------------- 
 current energy:         -84.85570135
    bias energy:           0.00000899
unbiased energy:         -84.85571034
... step 4 ...
      ----------------------------------------------------------- 
     |                   =====================                   |
     |                        A N C O P T                        |
     |                   =====================                   |
     |               Approximate Normal Coordinate               |
     |                Rational Function Optimizer                |
      ----------------------------------------------------------- 
 current energy:         -84.85469637
    bias energy:           0.00008074
unbiased energy:         -84.85477711
... step 5 ...
      ----------------------------------------------------------- 
     |                   =====================                   |
     |                        A N C O P T                        |
     |                   =====================                   |
     |               Approximate Normal Coordinate               |
     |                Rational Function Optimizer                |
      ----------------------------------------------------------- 
 current energy:         -84.85271210
    bias energy:           0.00020499
unbiased energy:         -84.85291709
... step 6 ...
      ----------------------------------------------------------- 
     |                   =====================                   |
     |                        A N C O P T                        |
     |                   =====================                   |
     |               Approximate Normal Coordinate               |
     |                Rational Function Optimizer                |
      ----------------------------------------------------------- 
 current energy:         -84.85028183
    bias energy:           0.00018014
unbiased energy:         -84.85046196
... step 7 ...
      ----------------------------------------------------------- 
     |                   =====================                   |
     |                        A N C O P T                        |
     |                   =====================                   |
     |               Approximate Normal Coordinate               |
     |                Rational Function Optimizer                |
      ----------------------------------------------------------- 
 current energy:         -84.84882562
    bias energy:           0.00009039
unbiased energy:         -84.84891601
... step 8 ...
      ----------------------------------------------------------- 
     |                   =====================                   |
     |                        A N C O P T                        |
     |                   =====================                   |
     |               Approximate Normal Coordinate               |
     |                Rational Function Optimizer                |
      ----------------------------------------------------------- 
 current energy:         -84.84775937
    bias energy:           0.00006082
unbiased energy:         -84.84782019
... step 9 ...
      ----------------------------------------------------------- 
     |                   =====================                   |
     |                        A N C O P T                        |
     |                   =====================                   |
     |               Approximate Normal Coordinate               |
     |                Rational Function Optimizer                |
      ----------------------------------------------------------- 
 current energy:         -84.85127569
    bias energy:           0.00009573
unbiased energy:         -84.85137142
... step 10 ...
      ----------------------------------------------------------- 
     |                   =====================                   |
     |                        A N C O P T                        |
     |                   =====================                   |
     |               Approximate Normal Coordinate               |
     |                Rational Function Optimizer                |
      ----------------------------------------------------------- 
 current energy:         -84.84901962
    bias energy:           0.00043862
unbiased energy:         -84.84945824
... step 11 ...
      ----------------------------------------------------------- 
     |                   =====================                   |
     |                        A N C O P T                        |
     |                   =====================                   |
     |               Approximate Normal Coordinate               |
     |                Rational Function Optimizer                |
      ----------------------------------------------------------- 
 current energy:         -84.84552456
    bias energy:           0.00114260
unbiased energy:         -84.84666716
... step 12 ...
      ----------------------------------------------------------- 
     |                   =====================                   |
     |                        A N C O P T                        |
     |                   =====================                   |
     |               Approximate Normal Coordinate               |
     |                Rational Function Optimizer                |
      ----------------------------------------------------------- 
 current energy:         -84.84118217
    bias energy:           0.00187463
unbiased energy:         -84.84305681
... step 13 ...
      ----------------------------------------------------------- 
     |                   =====================                   |
     |                        A N C O P T                        |
     |                   =====================                   |
     |               Approximate Normal Coordinate               |
     |                Rational Function Optimizer                |
      ----------------------------------------------------------- 
 current energy:         -84.83904882
    bias energy:           0.00101104
unbiased energy:         -84.84005985
... step 14 ...
      ----------------------------------------------------------- 
     |                   =====================                   |
     |                        A N C O P T                        |
     |                   =====================                   |
     |               Approximate Normal Coordinate               |
     |                Rational Function Optimizer                |
      ----------------------------------------------------------- 
 current energy:         -84.83826563
    bias energy:           0.00029833
unbiased energy:         -84.83856396
... step 15 ...
      ----------------------------------------------------------- 
     |                   =====================                   |
     |                        A N C O P T                        |
     |                   =====================                   |
     |               Approximate Normal Coordinate               |
     |                Rational Function Optimizer                |
      ----------------------------------------------------------- 
 current energy:         -84.84042641
    bias energy:           0.00031317
unbiased energy:         -84.84073958
... step 16 ...
      ----------------------------------------------------------- 
     |                   =====================                   |
     |                        A N C O P T                        |
     |                   =====================                   |
     |               Approximate Normal Coordinate               |
     |                Rational Function Optimizer                |
      ----------------------------------------------------------- 
 current energy:         -84.84327689
    bias energy:           0.00036011
unbiased energy:         -84.84363700
... step 17 ...
      ----------------------------------------------------------- 
     |                   =====================                   |
     |                        A N C O P T                        |
     |                   =====================                   |
     |               Approximate Normal Coordinate               |
     |                Rational Function Optimizer                |
      ----------------------------------------------------------- 
 current energy:         -84.84614973
    bias energy:           0.00035267
unbiased energy:         -84.84650240
... step 18 ...
      ----------------------------------------------------------- 
     |                   =====================                   |
     |                        A N C O P T                        |
     |                   =====================                   |
     |               Approximate Normal Coordinate               |
     |                Rational Function Optimizer                |
      ----------------------------------------------------------- 
 current energy:         -84.84839332
    bias energy:           0.00033677
unbiased energy:         -84.84873009
... step 19 ...
      ----------------------------------------------------------- 
     |                   =====================                   |
     |                        A N C O P T                        |
     |                   =====================                   |
     |               Approximate Normal Coordinate               |
     |                Rational Function Optimizer                |
      ----------------------------------------------------------- 
 current energy:         -84.85002753
    bias energy:           0.00028156
unbiased energy:         -84.85030909
... step 20 ...
      ----------------------------------------------------------- 
     |                   =====================                   |
     |                        A N C O P T                        |
     |                   =====================                   |
     |               Approximate Normal Coordinate               |
     |                Rational Function Optimizer                |
      ----------------------------------------------------------- 
 current energy:         -84.85120195
    bias energy:           0.00022808
unbiased energy:         -84.85143003
... step 21 ...
      ----------------------------------------------------------- 
     |                   =====================                   |
     |                        A N C O P T                        |
     |                   =====================                   |
     |               Approximate Normal Coordinate               |
     |                Rational Function Optimizer                |
      ----------------------------------------------------------- 
 current energy:         -84.85296464
    bias energy:           0.00015728
unbiased energy:         -84.85312191
... step 22 ...
      ----------------------------------------------------------- 
     |                   =====================                   |
     |                        A N C O P T                        |
     |                   =====================                   |
     |               Approximate Normal Coordinate               |
     |                Rational Function Optimizer                |
      ----------------------------------------------------------- 
 current energy:         -84.85501788
    bias energy:           0.00011189
unbiased energy:         -84.85512978
... step 23 ...
      ----------------------------------------------------------- 
     |                   =====================                   |
     |                        A N C O P T                        |
     |                   =====================                   |
     |               Approximate Normal Coordinate               |
     |                Rational Function Optimizer                |
      ----------------------------------------------------------- 
 current energy:         -84.85650195
    bias energy:           0.00005238
unbiased energy:         -84.85655433
... step 24 ...
      ----------------------------------------------------------- 
     |                   =====================                   |
     |                        A N C O P T                        |
     |                   =====================                   |
     |               Approximate Normal Coordinate               |
     |                Rational Function Optimizer                |
      ----------------------------------------------------------- 
 current energy:         -84.85705159
    bias energy:           0.00000308
unbiased energy:         -84.85705467
... step 25 ...
      ----------------------------------------------------------- 
     |                   =====================                   |
     |                        A N C O P T                        |
     |                   =====================                   |
     |               Approximate Normal Coordinate               |
     |                Rational Function Optimizer                |
      ----------------------------------------------------------- 
 current energy:         -84.85655926
    bias energy:           0.00005584
unbiased energy:         -84.85661510
... step 26 ...
      ----------------------------------------------------------- 
     |                   =====================                   |
     |                        A N C O P T                        |
     |                   =====================                   |
     |               Approximate Normal Coordinate               |
     |                Rational Function Optimizer                |
      ----------------------------------------------------------- 
 current energy:         -84.85529472
    bias energy:           0.00021115
unbiased energy:         -84.85550587
... step 27 ...
      ----------------------------------------------------------- 
     |                   =====================                   |
     |                        A N C O P T                        |
     |                   =====================                   |
     |               Approximate Normal Coordinate               |
     |                Rational Function Optimizer                |
      ----------------------------------------------------------- 
 current energy:         -84.85370857
    bias energy:           0.00034201
unbiased energy:         -84.85405058
... step 28 ...
      ----------------------------------------------------------- 
     |                   =====================                   |
     |                        A N C O P T                        |
     |                   =====================                   |
     |               Approximate Normal Coordinate               |
     |                Rational Function Optimizer                |
      ----------------------------------------------------------- 
 current energy:         -84.85251896
    bias energy:           0.00037868
unbiased energy:         -84.85289764
... step 29 ...
      ----------------------------------------------------------- 
     |                   =====================                   |
     |                        A N C O P T                        |
     |                   =====================                   |
     |               Approximate Normal Coordinate               |
     |                Rational Function Optimizer                |
      ----------------------------------------------------------- 
 current energy:         -84.85188087
    bias energy:           0.00038350
unbiased energy:         -84.85226437
... step 30 ...
      ----------------------------------------------------------- 
     |                   =====================                   |
     |                        A N C O P T                        |
     |                   =====================                   |
     |               Approximate Normal Coordinate               |
     |                Rational Function Optimizer                |
      ----------------------------------------------------------- 
 current energy:         -84.85161534
    bias energy:           0.00043004
unbiased energy:         -84.85204538
... step 31 ...
      ----------------------------------------------------------- 
     |                   =====================                   |
     |                        A N C O P T                        |
     |                   =====================                   |
     |               Approximate Normal Coordinate               |
     |                Rational Function Optimizer                |
      ----------------------------------------------------------- 
 current energy:         -84.85104205
    bias energy:           0.00058682
unbiased energy:         -84.85162887
... step 32 ...
      ----------------------------------------------------------- 
     |                   =====================                   |
     |                        A N C O P T                        |
     |                   =====================                   |
     |               Approximate Normal Coordinate               |
     |                Rational Function Optimizer                |
      ----------------------------------------------------------- 
 current energy:         -84.84997237
    bias energy:           0.00069968
unbiased energy:         -84.85067205
... step 33 ...
      ----------------------------------------------------------- 
     |                   =====================                   |
     |                        A N C O P T                        |
     |                   =====================                   |
     |               Approximate Normal Coordinate               |
     |                Rational Function Optimizer                |
      ----------------------------------------------------------- 
 current energy:         -84.84872877
    bias energy:           0.00070855
unbiased energy:         -84.84943732
... step 34 ...
      ----------------------------------------------------------- 
     |                   =====================                   |
     |                        A N C O P T                        |
     |                   =====================                   |
     |               Approximate Normal Coordinate               |
     |                Rational Function Optimizer                |
      ----------------------------------------------------------- 
 current energy:         -84.84745591
    bias energy:           0.00058234
unbiased energy:         -84.84803825
... step 35 ...
      ----------------------------------------------------------- 
     |                   =====================                   |
     |                        A N C O P T                        |
     |                   =====================                   |
     |               Approximate Normal Coordinate               |
     |                Rational Function Optimizer                |
      ----------------------------------------------------------- 
 current energy:         -84.84843837
    bias energy:           0.00036881
unbiased energy:         -84.84880717
... step 36 ...
      ----------------------------------------------------------- 
     |                   =====================                   |
     |                        A N C O P T                        |
     |                   =====================                   |
     |               Approximate Normal Coordinate               |
     |                Rational Function Optimizer                |
      ----------------------------------------------------------- 
 current energy:         -84.85172360
    bias energy:           0.00033199
unbiased energy:         -84.85205559
           -------------------------------------------------
          |                Property Printout                |
           -------------------------------------------------

    * Orbital Energies and Occupations

         #    Occupation            Energy/Eh            Energy/eV
      -------------------------------------------------------------
         1        2.0000           -0.7375671             -20.0702
       ...           ...                  ...                  ...
        59        2.0000           -0.4621015             -12.5744
        60        2.0000           -0.4545257             -12.3683
        61        2.0000           -0.4497675             -12.2388
        62        2.0000           -0.4460501             -12.1376
        63        2.0000           -0.4336619             -11.8005
        64        2.0000           -0.4326008             -11.7717
        65        2.0000           -0.4279595             -11.6454
        66        2.0000           -0.4257660             -11.5857
        67        2.0000           -0.4218559             -11.4793
        68        2.0000           -0.4164900             -11.3333
        69        2.0000           -0.4148400             -11.2884
        70        2.0000           -0.4113829             -11.1943
        71        2.0000           -0.4057253             -11.0403 (HOMO)
        72                         -0.0521398              -1.4188 (LUMO)
        73                         -0.0392639              -1.0684
        74                         -0.0166944              -0.4543
        75                         -0.0025586              -0.0696
        76                          0.0062690               0.1706
        77                          0.0139587               0.3798
        78                          0.0188022               0.5116
        79                          0.0304390               0.8283
        80                          0.0470399               1.2800
        81                          0.0537647               1.4630
        82                          0.0620680               1.6890
       ...                                ...                  ...
       120                          0.3002418               8.1700
      -------------------------------------------------------------
                  HL-Gap            0.3535855 Eh            9.6216 eV
             Fermi-level           -0.2289325 Eh           -6.2296 eV

     #   Z          covCN         q      C6AA      α(0)
     1   6 C        3.647     0.013    20.689     6.536
     2   8 O        1.702    -0.333    19.585     5.975
     3   6 C        3.652     0.240    17.148     5.947
     4   8 O        1.701    -0.355    19.982     6.035
     5   6 C        3.754     0.092    19.117     6.235
     6   6 C        3.676     0.072    19.592     6.342
     7   8 O        1.655    -0.487    22.610     6.419
     8   6 C        3.736     0.095    19.083     6.234
     9   8 O        1.701    -0.346    19.810     6.009
    10   6 C        3.647     0.238    17.192     5.958
    11   8 O        1.701    -0.345    19.804     6.008
    12   6 C        3.754     0.083    19.256     6.257
    13   6 C        3.676     0.064    19.728     6.364
    14   8 O        1.655    -0.492    22.710     6.433
    15   6 C        3.729     0.093    19.135     6.245
    16   8 O        1.655    -0.497    22.817     6.448
    17   6 C        3.731     0.102    18.996     6.221
    18   8 O        1.656    -0.501    22.905     6.461
    19   6 C        3.730     0.096    19.084     6.236
    20   8 O        1.656    -0.487    22.609     6.419
    21   6 C        3.732     0.108    18.889     6.204
    22   8 O        1.656    -0.484    22.558     6.412
    23   6 C        3.728     0.087    19.224     6.260
    24   8 O        1.656    -0.493    22.742     6.438
    25   1 H        0.925     0.063     2.167     2.302
    26   1 H        0.924     0.057     2.237     2.339
    27   1 H        0.925     0.097     1.811     2.104
    28   1 H        0.921     0.007     2.933     2.678
    29   1 H        0.923     0.045     2.379     2.412
    30   1 H        0.924     0.048     2.350     2.397
    31   1 H        0.924     0.068     2.108     2.270
    32   1 H        0.805     0.361     0.562     1.178
    33   1 H        0.924     0.049     2.332     2.388
    34   1 H        0.923     0.047     2.358     2.401
    35   1 H        0.923     0.054     2.273     2.358
    36   1 H        0.924     0.058     2.228     2.334
    37   1 H        0.924     0.069     2.097     2.264
    38   1 H        0.805     0.373     0.538     1.152
    39   1 H        0.923     0.031     2.568     2.506
    40   1 H        0.804     0.364     0.557     1.172
    41   1 H        0.923     0.041     2.431     2.439
    42   1 H        0.804     0.373     0.537     1.151
    43   1 H        0.922     0.031     2.567     2.506
    44   1 H        0.804     0.374     0.536     1.150
    45   1 H        0.923     0.030     2.592     2.518
    46   1 H        0.804     0.374     0.536     1.150
    47   1 H        0.923     0.044     2.400     2.423
    48   1 H        0.804     0.378     0.528     1.141

 Mol. C6AA /au·bohr⁶  :      19210.776012
 Mol. C8AA /au·bohr⁸  :     411420.833331
 Mol. α(0) /au        :        198.828432


Wiberg/Mayer (AO) data.
largest (>0.10) Wiberg bond orders for each atom

 ---------------------------------------------------------------------------
     #   Z sym  total        # sym  WBO       # sym  WBO       # sym  WBO
 ---------------------------------------------------------------------------
     1   6 C    3.917 --    25 H    0.981    26 H    0.978    27 H    0.976
                             2 O    0.956
     2   8 O    2.080 --     3 C    1.011     1 C    0.956
     3   6 C    3.930 --     2 O    1.011    23 C    0.952     4 O    0.950
                            28 H    0.941
     4   8 O    2.063 --     5 C    0.967     3 C    0.950
     5   6 C    3.941 --     6 C    0.976     4 O    0.967     8 C    0.959
                            29 H    0.955
     6   6 C    3.959 --     7 O    1.014     5 C    0.976    31 H    0.967
                            30 H    0.967
     7   8 O    1.930 --     6 C    1.014    32 H    0.856
     8   6 C    3.943 --    21 C    0.967     9 O    0.967     5 C    0.959
                            33 H    0.959
     9   8 O    2.079 --     8 C    0.967    10 C    0.961
    10   6 C    3.922 --    11 O    0.988     9 O    0.961    19 C    0.953
                            34 H    0.948
    11   8 O    2.069 --    10 C    0.988    12 C    0.947
    12   6 C    3.930 --    13 C    0.975    15 C    0.965    35 H    0.957
                            11 O    0.947
    13   6 C    3.953 --    14 O    1.009    12 C    0.975    36 H    0.969
                            37 H    0.968
    14   8 O    1.944 --    13 C    1.009    38 H    0.849
    15   6 C    3.963 --    16 O    1.004    17 C    0.967    12 C    0.965
                            39 H    0.956
    16   8 O    1.921 --    15 C    1.004    40 H    0.833
    17   6 C    3.962 --    18 O    0.998    19 C    0.972    15 C    0.967
                            41 H    0.956
    18   8 O    1.920 --    17 C    0.998    42 H    0.845
    19   6 C    3.966 --    20 O    1.010    17 C    0.972    10 C    0.953
                            43 H    0.951
    20   8 O    1.928 --    19 C    1.010    44 H    0.841
    21   6 C    3.968 --    22 O    1.010    23 C    0.968     8 C    0.967
                            45 H    0.954
    22   8 O    1.928 --    21 C    1.010    46 H    0.839
    23   6 C    3.963 --    24 O    1.005    21 C    0.968    47 H    0.956
                             3 C    0.952
    24   8 O    1.925 --    23 C    1.005    48 H    0.841
    25   1 H    0.996 --     1 C    0.981
    26   1 H    0.997 --     1 C    0.978
    27   1 H    0.990 --     1 C    0.976
    28   1 H    1.000 --     3 C    0.941
    29   1 H    0.998 --     5 C    0.955
    30   1 H    0.998 --     6 C    0.967
    31   1 H    0.995 --     6 C    0.967
    32   1 H    0.869 --     7 O    0.856
    33   1 H    0.998 --     8 C    0.959
    34   1 H    0.997 --    10 C    0.948
    35   1 H    0.997 --    12 C    0.957
    36   1 H    0.996 --    13 C    0.969
    37   1 H    0.995 --    13 C    0.968
    38   1 H    0.861 --    14 O    0.849
    39   1 H    0.999 --    15 C    0.956
    40   1 H    0.867 --    16 O    0.833
    41   1 H    0.998 --    17 C    0.956
    42   1 H    0.861 --    18 O    0.845
    43   1 H    0.999 --    19 C    0.951
    44   1 H    0.860 --    20 O    0.841
    45   1 H    0.999 --    21 C    0.954
    46   1 H    0.860 --    22 O    0.839
    47   1 H    0.998 --    23 C    0.956
    48   1 H    0.857 --    24 O    0.841
 ---------------------------------------------------------------------------

Topologies differ in total number of bonds
Writing topology from bond orders to xtbtopo.mol

molecular dipole:
                 x           y           z       tot (Debye)
 q only:        0.610       1.126      -0.872
   full:        0.874       1.327      -0.940       4.693
molecular quadrupole (traceless):
                xx          xy          yy          xz          yz          zz
 q only:       16.951       4.766      -6.933      -5.751       0.882     -10.018
  q+dip:       14.477       4.375      -5.959      -5.907      -5.118      -8.518
   full:       15.562       4.541      -6.497      -6.047      -3.520      -9.064

           -------------------------------------------------
          |                Geometry Summary                 |
           -------------------------------------------------

      molecular mass/u    :      356.3235988
   center of mass at/Å    :       -0.0775385      -0.1397562       0.0811094
  moments of inertia/u·Å² :        0.1336088E+04   0.3697575E+04   0.4450981E+04
rotational constants/cm⁻¹ :        0.1261716E-01   0.4559104E-02   0.3787397E-02

 * 47 selected distances

     #   Z          #   Z                                           value/Å
     1   6 C        2   8 O                                       1.4251437
     2   8 O        3   6 C                                       1.3828701
     3   6 C        4   8 O                                       1.4119713
     4   8 O        5   6 C                                       1.4144647
     5   6 C        6   6 C                                       1.5353412
     6   6 C        7   8 O                                       1.4014287
     8   6 C        9   8 O                                       1.4142679
     9   8 O       10   6 C                                       1.4111505
    10   6 C       11   8 O                                       1.3970396
    11   8 O       12   6 C                                       1.4291936
    12   6 C       13   6 C                                       1.5368668
    13   6 C       14   8 O                                       1.4063902
    12   6 C       15   6 C                                       1.5411121 (max)
    15   6 C       16   8 O                                       1.4058953
    15   6 C       17   6 C                                       1.5373955
    17   6 C       18   8 O                                       1.4062945
    10   6 C       19   6 C                                       1.5359684
    17   6 C       19   6 C                                       1.5271440
    19   6 C       20   8 O                                       1.3959054
    21   6 C       22   8 O                                       1.3973384
     3   6 C       23   6 C                                       1.5345890
    21   6 C       23   6 C                                       1.5338266
    23   6 C       24   8 O                                       1.4029805
     1   6 C       25   1 H                                       1.0899299
     1   6 C       26   1 H                                       1.0932638
     1   6 C       27   1 H                                       1.0860762
     3   6 C       28   1 H                                       1.1117271
     5   6 C       29   1 H                                       1.1003317
     6   6 C       30   1 H                                       1.0964317
     6   6 C       31   1 H                                       1.0913492
     7   8 O       32   1 H                                       0.9676042 (min)
     8   6 C       33   1 H                                       1.0932826
    10   6 C       34   1 H                                       1.1002804
    12   6 C       35   1 H                                       1.0989774
    13   6 C       36   1 H                                       1.0934149
    13   6 C       37   1 H                                       1.0923501
    14   8 O       38   1 H                                       0.9680645
    15   6 C       39   1 H                                       1.1030046
    16   8 O       40   1 H                                       0.9742198
    17   6 C       41   1 H                                       1.0987922
    18   8 O       42   1 H                                       0.9686436
    19   6 C       43   1 H                                       1.1054253
    20   8 O       44   1 H                                       0.9696648
Note: The following floating-point exceptions are signalling: IEEE_UNDERFLOW_FLAG IEEE_DENORMAL
normal termination of xtb
    21   6 C       45   1 H                                       1.1044059
    22   8 O       46   1 H                                       0.9715105
    23   6 C       47   1 H                                       1.0995134
    24   8 O       48   1 H                                       0.9688979

 * 4 distinct bonds (by element types)

   Z      Z             #   av. dist./Å        max./Å        min./Å
   1 H    6 C          17     1.0975621     1.1117271     1.0860762
   6 C    6 C           8     1.5352804     1.5411121     1.5271440
   1 H    8 O           7     0.9698008     0.9742198     0.9676042
   6 C    8 O          15     1.4068223     1.4291936     1.3828701


optimized geometry written to: xtbopt.xyz


           -------------------------------------------------
          | TOTAL ENERGY              -84.854135775576 Eh   |
          | GRADIENT NORM               0.000277199424 Eh/α |
          | HOMO-LUMO GAP               9.621551450240 eV   |
           -------------------------------------------------

------------------------------------------------------------------------
 * finished run on 2026/09/21 at 15:40:59.371     
------------------------------------------------------------------------
 total:
 * wall-time:     0 d,  0 h,  2 min, 45.895 sec
 *  cpu-time:     0 d,  0 h,  2 min, 30.192 sec
 * ratio c/w:     0.905 speedup
 SCF:
 * wall-time:     0 d,  0 h,  0 min,  0.221 sec
 *  cpu-time:     0 d,  0 h,  0 min,  0.143 sec
 * ratio c/w:     0.648 speedup
 ANC optimizer:
 * wall-time:     0 d,  0 h,  2 min, 45.642 sec
 *  cpu-time:     0 d,  0 h,  2 min, 30.017 sec
 * ratio c/w:     0.906 speedup

