48
 energy: -84.822301359303 gnorm: 0.000392391075 xtb: 6.7.1 (edcfbbe)
C            4.15824693896581        1.49081927941617        0.61230650425053
O            3.47865601446372        0.25889592765096        0.40767847364923
C            3.58549161307811       -0.24561427254319       -0.89061404132737
O            2.92268484595075        0.53962349213156       -1.84720070155010
C            1.49741098823443        0.42921911358256       -1.91301217405537
C            0.95279217115612        1.85356650206756       -2.09229142674570
O            1.43932397702773        2.44976309135556       -3.26329120655765
C            0.88058951174543       -0.26767492544600       -0.69379424080711
O           -0.49649119471706       -0.48952650431795       -1.01046248412504
C           -1.50212370116359       -0.13652429066735       -0.12479235681559
O           -1.61203738950401       -1.14027136359418        0.87166813437162
C           -2.74873641104156       -1.02685357881939        1.73233500106979
C           -3.58976568504396       -2.30860694414524        1.60299781569394
O           -2.92855509232322       -3.42770198305781        2.12740041377601
C           -3.62009333420022        0.21068499064224        1.45659565113811
O           -4.58557807359702        0.38278939847298        2.45974604430322
C           -2.77922461708171        1.49431394727595        1.25298879217718
O           -3.44281423918440        2.39407662412622        0.40252866262311
C           -1.39529539112251        1.19990386547930        0.62896394674882
O           -0.39920812054869        1.15317525225230        1.61792027544267
C            1.56863511088793       -1.60917391169501       -0.34620940943771
O            1.54547023617728       -1.83612600412061        1.03789334340437
C            3.02040461535359       -1.67109488882446       -0.88023657560966
O            3.14077978778923       -2.27871051069828       -2.13558943359844
H            3.77376709053731        2.26240457432167       -0.05836676259663
H            5.23164997539603        1.36429019903974        0.44467022772656
H            3.96893173163958        1.76758361522369        1.64584883199402
H            4.63624255274032       -0.23873434740759       -1.22510328090491
H            1.22863683437576       -0.14895040826017       -2.80976849348863
H            1.22027744320868        2.45316255106165       -1.20965619548533
H           -0.13365748125979        1.81519166282698       -2.19008762206286
H            2.40290197952572        2.36441819343677       -3.26573266950827
H            0.97964432257137        0.39843799527312        0.16836812179333
H           -2.39972217031494       -0.11961411514014       -0.76187925330671
H           -2.36634243044582       -0.97837646231478        2.76353932427514
H           -3.83705400135536       -2.45993838794915        0.54287070662515
H           -4.51385161310280       -2.19436906608062        2.17381533954523
H           -2.07026074021643       -3.50281728924856        1.68952483916998
H           -4.20157711455753        0.04012135322022        0.54270547206553
H           -4.15783459609979        0.48452232010064        3.32172586215197
H           -2.59546285064213        1.96197064191612        2.23464269661276
H           -4.31759625353489        2.58826132383469        0.76772676542394
H           -1.15059848786143        2.02262063539369       -0.04750173758627
H           -0.40307697480030        0.26288932225707        2.00666858064997
H            0.99099916189259       -2.42106704391164       -0.80056136241725
H            2.13639847853066       -1.19243545402630        1.45692768720026
H            3.60178034758118       -2.29160688087391       -0.19024371319277
H            2.88524209193522       -1.65692214343982       -2.83018205061391
