48
Coordinates from ORCA-job 3_opt_3c E -1337.097890128520
  C           5.71054454604787      0.84139952053190      0.47192432047073
  O           5.00502974325072     -0.24157171451731     -0.15762422531529
  C           3.65337941919651      0.01284373321540     -0.35417380140451
  O           2.98214680731618     -0.08235290585992      0.90413397839332
  C           1.58489566769046      0.22758951118885      0.80403151993502
  C           1.01971860471147      0.28090093344575      2.20451960942438
  O           1.06683183431968     -1.02578944633657      2.78432476782915
  C           0.91481674375264     -0.81917847818468     -0.09709342989905
  O          -0.45393838909572     -0.48659850015783     -0.35382998671978
  C          -1.46566360354035     -1.28247860670834      0.23573031656645
  O          -2.02314735040535     -0.68415468584026      1.39104783641648
  C          -2.65784825028992      0.58530241150786      1.15100931733899
  C          -3.16296815014392      1.05943132237942      2.51164785939743
  O          -3.53685512271685      2.43601426693584      2.50010461265766
  C          -3.77977427500644      0.41616766703583      0.12578957782845
  O          -4.35220613520228      1.71163547988680     -0.09635432556061
  C          -3.23159601651128     -0.18316415893575     -1.15885234464280
  O          -4.33363026870774     -0.38249910982003     -2.04649709635411
  C          -2.53476300182950     -1.50272837765316     -0.83508645013917
  O          -1.98956634406058     -2.11403866866035     -1.99911142235886
  C           1.60493689718339     -0.85526176178392     -1.45306798180343
  O           1.01081640008929     -1.91150404029050     -2.21163087810697
  C           3.10465699692373     -1.05163468235428     -1.29891305715197
  O           3.67188260227973     -0.94529752148969     -2.60266335210540
  H           5.36331161419927      0.99293146352302      1.49999220654304
  H           5.57950717771137      1.76855423133184     -0.10120775875315
  H           6.76546019127809      0.56161130655988      0.48006157851121
  H           3.49632952748891      1.02634666434577     -0.77589976533522
  H           1.45036874396517      1.22601712863795      0.35076065021525
  H           1.61598563913072      0.99592143611375      2.79037593924212
  H          -0.01251933256026      0.64891385048253      2.14738444182785
  H           0.63320488103937     -0.97860211174309      3.64462103835255
  H           0.98284774755802     -1.80749888019478      0.37791911226964
  H          -1.05127002030972     -2.24060387880819      0.57571957908314
  H          -1.92154025305010      1.31123256605888      0.76896390064364
  H          -2.35086995729960      0.95399560959580      3.23954834263468
  H          -3.99935816729016      0.41873556299139      2.83500727342359
  H          -4.15533429085194      2.54617668562920      1.76152724994344
  H          -4.53995212561923     -0.26687844386553      0.54235000052953
  H          -5.11906735124721      1.59864401793306     -0.67344476708462
  H          -2.50736504777463      0.51882582497585     -1.60393186827061
  H          -3.97771004453559     -0.75463462696347     -2.86450080927811
  H          -3.28148866426193     -2.19886900565015     -0.42957388914219
  H          -1.08915391096563     -1.76330108330444     -2.13016302557794
  H           1.43056991451872      0.11145996948350     -1.95733609951883
  H           1.41894664764940     -1.90502930447683     -3.08828723059210
  H           3.30709398338892     -2.04149948415197     -0.85778042883346
  H           4.60009274258636     -1.20639268603905     -2.54311203552952
