48
Coordinates from ORCA-job 3_opt_3c E -1337.091860671696
  C           5.36722877346605      0.58719562457622      1.51789531394881
  O           4.66737645949409      0.60913387696012      0.26172191462363
  C           3.29861203335685      0.41082600109708      0.38144584690473
  O           3.05741108365871     -0.97495441968336      0.64803486844549
  C           1.66736215691053     -1.25315251003607      0.86723970076529
  C           1.58543430667651     -2.72091446436641      1.25872325515614
  O           2.04736368785393     -3.59019898965965      0.22517907201397
  C           0.88705309006857     -0.92957841864368     -0.41684630867962
  O          -0.50975513480499     -1.26336202975177     -0.31964776190106
  C          -1.27522063044249     -0.82578221882236      0.79527354601678
  O          -1.34244799504753      0.57226388849205      0.96287357574618
  C          -2.02947967383067      1.29006605445880     -0.08820554468632
  C          -2.00974020678083      2.75267393400635      0.29168024488374
  O          -0.66161674230167      3.22988977724845      0.20699054451967
  C          -3.45305224939136      0.75851531848011     -0.22744321268908
  O          -4.08056112026076      1.45495744868661     -1.30266499134882
  C          -3.42527558698767     -0.74496313871843     -0.50100838180714
  O          -4.75445391710363     -1.24422666869768     -0.66818349494790
  C          -2.66478212962070     -1.45540565803880      0.61667041300125
  O          -2.57293455626509     -2.86071494030442      0.42867131692217
  C           1.14595862332336      0.50194693922854     -0.87340375363517
  O           0.54819845558786      0.66486051893469     -2.16196932621443
  C           2.64511887882824      0.77136914157981     -0.94502433973450
  O           2.79270173012198      2.15773876700772     -1.24789012201334
  H           5.32514712229367     -0.40790064903911      1.97468508174143
  H           4.94001497771312      1.32701018576859      2.20734448739114
  H           6.40494627936878      0.84539284675289      1.29965381663751
  H           2.87743830615034      1.01707484047661      1.20862224301474
  H           1.30462044031001     -0.63875186015580      1.70912018616988
  H           2.16282369221438     -2.86413354991779      2.18399076512398
  H           0.54484745719189     -2.99572567473622      1.45570445348755
  H           2.96935514807556     -3.36126646922231      0.04714509847883
  H           1.25389012110115     -1.60308496643594     -1.20229080065692
  H          -0.83435636593197     -1.18649764974745      1.73430721149727
  H          -1.49889357204837      1.14915760036139     -1.04134111517559
  H          -2.66337186501621      3.29946552131754     -0.40057062828926
  H          -2.40513322713569      2.86458817672385      1.31340874474262
  H          -0.66877927786694      4.17046654332617      0.42231902107941
  H          -3.99945350557076      0.93550678118760      0.71826881924875
  H          -4.89194433312247      0.96947383842750     -1.51023647899516
  H          -2.92471984608257     -0.92159062616181     -1.46314121620795
  H          -5.21325927910686     -1.17192591051000      0.18155423289616
  H          -3.20740361021338     -1.30889009994830      1.56086252944996
  H          -1.97284786169397     -3.00906290160775     -0.31668163587409
  H           0.70884400840400      1.21176712411188     -0.15725284774295
  H           0.69712223122305      1.58227006674906     -2.42866624021169
  H           3.09811597006694      0.14379681187778     -1.73049893138474
  H           3.72810665316700      2.32269818636771     -1.42405117171140
