48
cell (60, 50) s_026 rnd16 xtb E -84.858023590
C 5.395144 0.506142 1.450403
O 4.649023 0.603503 0.239461
C 3.286299 0.421110 0.384407
O 3.029828 -0.927870 0.710838
C 1.655578 -1.216338 0.895985
C 1.587991 -2.710236 1.256369
O 2.134909 -3.516545 0.250546
C 0.851290 -0.904844 -0.379870
O -0.526736 -1.232386 -0.276637
C -1.288202 -0.797879 0.823960
O -1.362521 0.584999 0.990236
C -2.036420 1.286320 -0.056703
C -2.013357 2.769223 0.301763
O -0.692343 3.246700 0.193770
C -3.468440 0.764843 -0.215037
O -4.106256 1.467500 -1.248202
C -3.402394 -0.741760 -0.519693
O -4.682448 -1.259986 -0.780434
C -2.683938 -1.443339 0.639899
O -2.589564 -2.827574 0.477740
C 1.108312 0.541055 -0.833132
O 0.480648 0.734424 -2.077644
C 2.618899 0.776441 -0.949684
O 2.817851 2.121310 -1.291027
H 5.282269 -0.484258 1.892380
H 5.062226 1.267831 2.160826
H 6.428863 0.678699 1.166505
H 2.878204 1.073095 1.185882
H 1.270635 -0.603161 1.725187
H 2.117083 -2.860686 2.205627
H 0.547532 -3.018288 1.368090
H 3.051617 -3.239286 0.104988
H 1.192492 -1.571604 -1.181567
H -0.852532 -1.158997 1.767189
H -1.508058 1.139241 -1.007008
H -2.682131 3.284459 -0.396058
H -2.382765 2.881888 1.328794
H -0.687908 4.203568 0.340728
H -4.012304 0.921980 0.733129
H -4.803079 0.896662 -1.613875
H -2.827786 -0.885981 -1.442209
H -5.142379 -1.450548 0.049983
H -3.251224 -1.289384 1.565823
H -2.067318 -3.017921 -0.316535
H 0.710401 1.252755 -0.094749
H 0.775607 1.590745 -2.425171
H 3.033665 0.110658 -1.721668
H 3.769346 2.301742 -1.331237
