48
Coordinates from ORCA-job 3_opt_3c E -1337.089841828660
  C           5.28392006519737      0.69306257055312      1.53627261859332
  O           4.61051822922310      0.65997652390289      0.26625066953069
  C           3.23916364235498      0.48382151436934      0.37476350086431
  O           2.98952625599471     -0.87815978440421      0.74091372790664
  C           1.60277349410538     -1.14249524398873      0.99160902201689
  C           1.53685797018493     -2.56944642606308      1.50702916194692
  O           2.22743220286870     -2.71532080220789      2.74704418528529
  C           0.82764410165664     -0.95344566396877     -0.32127537634687
  O          -0.56166311412891     -1.30963555164977     -0.22227111442975
  C          -1.34051399493499     -0.78600323577476      0.83742782056692
  O          -1.44220760479880      0.62442530696075      0.85372185026172
  C          -2.13628740270164      1.19836789228718     -0.27589839930348
  C          -2.11294663556285      2.70142059999227     -0.01042650072329
  O          -2.74444557574928      3.43977186987752     -1.06577395878946
  C          -3.55402503729189      0.62964413962127     -0.37818081677115
  O          -4.21718130308456      1.07575700493539     -1.56271925148057
  C          -3.49529861563527     -0.88937466204143     -0.44726370122570
  O          -4.79935865868616     -1.47422267703235     -0.39007599779026
  C          -2.72854052247976     -1.42096953564949      0.75279537737296
  O          -2.58566955119017     -2.83579415107105      0.72366842248827
  C           1.08699853996558      0.44308725194592     -0.89331756126396
  O           0.49317592733175      0.62798167230060     -2.18069834379541
  C           2.59112694560450      0.72993500612943     -0.97833227275518
  O           2.81446715972059      2.08297436013584     -1.35887576441631
  H           5.22233156377441     -0.27723188021586      2.04198520457137
  H           4.85105414040913      1.47041837583972      2.17968951687039
  H           6.32852678568117      0.93015689562572      1.32707870464249
  H           2.80924772932403      1.15325272126002      1.14686666508687
  H           1.24115129859315     -0.44461692411658      1.76633088537385
  H           1.95084940483308     -3.24146070207205      0.73876846838026
  H           0.49721948051577     -2.85688089747627      1.68833217794228
  H           3.14581791071380     -2.45596963456116      2.59349912300373
  H           1.22429553679681     -1.68655412124436     -1.04043868680216
  H          -0.89134892333315     -1.03194220760000      1.80924899971187
  H          -1.59360304115216      0.97482596359619     -1.20665141835154
  H          -1.07511200291743      3.03095627064802      0.13535204130099
  H          -2.67773705078173      2.92017247490358      0.90290576760131
  H          -2.15250635710541      3.43369069819494     -1.83022511303104
  H          -4.12568788246784      0.92264655670618      0.52087905629902
  H          -4.10938899979391      2.04057907050001     -1.59626296724600
  H          -2.98468511141076     -1.18630462441374     -1.37760467478954
  H          -5.27098245907483     -1.21752002326657     -1.19280183573586
  H          -3.26349804181427     -1.10979450852750      1.66592775153199
  H          -3.47805787490875     -3.20679624387648      0.71068398992141
  H           0.63348671641519      1.20195327640109     -0.24575292048580
  H           0.82610463750417     -0.06497759725165     -2.77011552316988
  H           3.05505631073572      0.03570637871479     -1.70205716523556
  H           2.25200371149987      2.25032670307193     -2.12853934513299
