48
Coordinates from ORCA-job 3_opt_3c E -1337.097893693206
  C           5.74797568616044     -0.86813728031138      0.10016349915561
  O           4.97101280746093      0.26801474400713      0.51468778811117
  C           3.63778767857280     -0.03088035379726      0.75250230841220
  O           2.99175004836249     -0.22235962853532     -0.51265777342789
  C           1.61030075462431     -0.59323872760302     -0.40056149348580
  C           1.12551962835523     -0.89185938634946     -1.80842058821731
  O           1.17571158652813      0.25008011571440     -2.66487160372736
  C           0.85933588054218      0.55578941984452      0.27240799399312
  O          -0.50197074374346      0.15854941999790      0.48612359470641
  C          -1.48178213202149      1.14530245623039      0.24856480438821
  O          -2.09518167429058      0.98041621432590     -1.01708119018033
  C          -2.80326217153443     -0.26244544668452     -1.17252322732583
  C          -3.32658102496770     -0.22278270794321     -2.60052411193472
  O          -3.98775256096424     -1.47001844179383     -2.86400011113956
  C          -3.91368741464508     -0.37144861468070     -0.12103494694392
  O          -4.55822142980767     -1.64502213987103     -0.15545802842028
  C          -3.32170832896495     -0.21622228857999      1.27410114071352
  O          -4.33732366277206     -0.14801962205402      2.27781053557718
  C          -2.53168845451734      1.07807185020987      1.35722589603120
  O          -1.84997327092719      1.21227133179786      2.60584885558984
  C           1.49686179536576      0.86204560920769      1.62425331217921
  O           0.91500384842812      2.00342516326779      2.25081978473158
  C           2.98657040864646      1.14180374009778      1.47408088563765
  O           3.60727801064391      1.29308425056529      2.74715599511768
  H           5.42529019230418     -1.23167965805960     -0.88190812673066
  H           5.66547365965598     -1.67818532512649      0.83687242528800
  H           6.78420946263440     -0.53034261864703      0.04220708431794
  H           3.53669967480577     -0.95865411097156      1.35065632985465
  H           1.50787981018899     -1.50818486017289      0.20962506364336
  H           1.72531455717738     -1.71878330466811     -2.21653197181363
  H           0.08002931727471     -1.21042982063592     -1.76781881951423
  H           2.09792997104327      0.53537533914132     -2.71191864078224
  H           0.90192217227709      1.44026473881350     -0.37878295210948
  H          -1.02868694437114      2.14391539926439      0.21944378602470
  H          -2.11464027686271     -1.11418228777072     -1.05380292099330
  H          -4.02320002034662      0.62097201036535     -2.70771399511421
  H          -2.48122013213005     -0.07463899216969     -3.28764619032996
  H          -4.49855296159391     -1.37190158166389     -3.67690517991802
  H          -4.64399557665799      0.44028440281040     -0.29182037015441
  H          -4.76077329057267     -1.82902703315109     -1.08800899815920
  H          -2.64964155635238     -1.06782250469221      1.46855001650534
  H          -4.78084983403403     -1.00561539598453      2.30461172676387
  H          -3.21972923037696      1.92486167468346      1.20841955765419
  H          -2.51235586386358      1.31789799662184      3.30113966332780
  H           1.37240520503193     -0.02703465064958      2.26788679242720
  H           0.01206026117799      1.76389594396656      2.52754854597580
  H           3.12843160528786      2.04586049257795      0.85672034534915
  H           3.04913153376790      1.89725846905574      3.25655350894574
