48
cell (100, -140) s_088 rnd80 xtb E -84.860754082
C 5.723364 -0.851042 0.036813
O 4.924233 0.243715 0.478755
C 3.610032 -0.080131 0.747695
O 2.956132 -0.315790 -0.483362
C 1.576518 -0.609045 -0.379435
C 1.085416 -0.861895 -1.812696
O 1.252386 0.257498 -2.638562
C 0.827155 0.558097 0.279936
O -0.530365 0.189716 0.484676
C -1.496184 1.176640 0.235089
O -2.096747 1.006126 -1.017736
C -2.793874 -0.226902 -1.158843
C -3.344098 -0.234270 -2.587169
O -3.951956 -1.480291 -2.837975
C -3.898862 -0.367650 -0.100069
O -4.510399 -1.633143 -0.125964
C -3.290396 -0.190264 1.298625
O -4.277577 -0.179248 2.300393
C -2.542166 1.140538 1.360245
O -1.875579 1.327010 2.579916
C 1.461873 0.872413 1.645804
O 0.926616 2.034510 2.230989
C 2.974541 1.088108 1.510939
O 3.583540 1.149585 2.771070
H 5.322854 -1.270301 -0.887601
H 5.764315 -1.624660 0.808616
H 6.711837 -0.434766 -0.132225
H 3.543266 -0.991430 1.377894
H 1.422664 -1.512376 0.229479
H 1.624343 -1.727474 -2.216332
H 0.016879 -1.076727 -1.790303
H 2.193186 0.488718 -2.647291
H 0.891328 1.436094 -0.373192
H -1.037320 2.172003 0.193816
H -2.098303 -1.068993 -1.029447
H -4.065624 0.585965 -2.686005
H -2.504425 -0.048769 -3.265724
H -4.226433 -1.526252 -3.765246
H -4.650960 0.424254 -0.257484
H -4.638467 -1.899929 -1.053032
H -2.574523 -1.007730 1.474601
H -4.842862 -0.955924 2.174958
H -3.261564 1.955535 1.188240
H -2.501233 1.133048 3.296526
H 1.290773 0.004457 2.301155
H -0.002123 1.871767 2.478332
H 3.161011 2.009355 0.940844
H 3.156885 1.860374 3.276277
