48
-84.839621572097
C 5.634209 1.136609 -0.487572
O 4.527223 1.268661 0.396026
C 3.451680 0.447798 0.114035
O 2.859119 0.822084 -1.109157
C 1.719410 0.047647 -1.428326
C 1.267231 0.481368 -2.828730
O 2.257732 0.264644 -3.795639
C 0.593594 0.244293 -0.389344
O -0.481134 -0.616691 -0.729956
C -1.768069 -0.134300 -1.059275
O -2.642394 -1.206292 -0.874908
C -2.814900 -1.562827 0.495319
C -3.681996 -2.830256 0.518891
O -3.821885 -3.354608 1.816654
C -3.476148 -0.411190 1.270800
O -3.608111 -0.689440 2.641591
C -2.611489 0.847093 1.129083
O -3.265415 1.990228 1.639536
C -2.348256 1.107834 -0.354149
O -1.557390 2.247451 -0.566071
C 1.171888 -0.182723 0.973839
O 0.242736 0.011509 2.005026
C 2.451205 0.608406 1.265456
O 2.977973 0.126043 2.474197
H 5.372571 1.479050 -1.489425
H 5.967774 0.095457 -0.529725
H 6.416012 1.765402 -0.069827
H 3.770509 -0.617019 0.048496
H 1.990547 -1.019861 -1.449453
H 0.977651 1.539609 -2.789903
H 0.406574 -0.119296 -3.125109
H 3.050628 0.743170 -3.519364
H 0.281789 1.288414 -0.359569
H -1.795284 0.070313 -2.144925
H -1.832834 -1.765193 0.947079
H -3.250498 -3.560179 -0.172930
H -4.688641 -2.582805 0.174296
H -2.988772 -3.759067 2.093037
H -4.465354 -0.208221 0.823083
H -3.966492 -1.588906 2.735291
H -1.664683 0.685685 1.657067
H -3.542417 1.787291 2.542586
H -3.332657 1.256049 -0.835022
H -1.934136 2.955766 -0.021674
H 1.428950 -1.253757 0.908820
H 0.708820 -0.116719 2.845426
H 2.202530 1.677690 1.344362
H 3.810601 0.583780 2.653541
