48
 energy: -84.855086898463 gnorm: 0.000384667883 xtb: 6.7.1 (edcfbbe)
C            5.72746754583185       -0.50267372470116        0.07516106242769
O            4.83164592005669        0.52371486402831        0.49116240465829
C            3.59182132986148        0.08446527271640        0.90885732217394
O            2.83394609708177       -0.28502938690110       -0.22655374270765
C            1.52371787084137       -0.71720586545059        0.09419027398303
C            0.92202793323497       -1.32822912027372       -1.17436913680325
O            1.71599015845470       -2.36331719703119       -1.68375029902770
C            0.72749611127320        0.46984455971316        0.66447339046071
O           -0.61155808159181        0.10306676846956        0.98218109183042
C           -1.61303429824501        0.96841841540681        0.51092163108538
O           -1.79779844931152        0.94811486218699       -0.87301520188549
C           -2.44421774513631       -0.19656298143300       -1.43758670050239
C           -2.71841700173171        0.14701480292787       -2.90929350652120
O           -1.53903513262620        0.37131248556968       -3.63509476024173
C           -3.74281163769144       -0.56923122684844       -0.71027640145066
O           -4.30693342962718       -1.75067491800134       -1.21583843584150
C           -3.47726172575363       -0.67716224665284        0.79827213791189
O           -4.66105114255730       -0.93049574407554        1.51498208582494
C           -2.90918182788578        0.65960147789816        1.27877912868992
O           -2.63458324918955        0.67442293678580        2.64868534771706
C            1.43422623720274        0.99665477407611        1.92551426759546
O            0.84058937582473        2.16620267117731        2.43105008457271
C            2.93357850243364        1.23875851636130        1.67564569150792
O            3.62460845775938        1.37690381644352        2.88795470274689
H            5.35396171943688       -1.00207726413646       -0.81962003305568
H            5.86781520536387       -1.23220488345258        0.87720344997349
H            6.66365343317750        0.00418580731694       -0.13959591992073
H            3.68169528820650       -0.78823008544811        1.58756682852694
H            1.58385746483553       -1.50219559694134        0.86565737237346
H            0.76190758367165       -0.54753896454962       -1.92689424081457
H           -0.02830083568893       -1.78959139317196       -0.90795081270914
H            2.58771498006162       -2.00429142891656       -1.90168071752509
H            0.71296677573751        1.25761130815800       -0.10178827326616
H           -1.32719990095659        2.00811737179335        0.72914386256201
H           -1.76194635812874       -1.05469232274683       -1.39162410578129
H           -3.37443745401204        1.02415521742227       -2.94730711112910
H           -3.22102138980045       -0.69793605798650       -3.38251973990647
H           -1.12484356670435        1.17778946274262       -3.29909732905924
H           -4.49942464515634        0.20645219023365       -0.87559824286583
H           -3.65735623656017       -2.46917861024792       -1.18471017397779
H           -2.73463773494576       -1.46649951298615        0.99776779889955
H           -5.18259209903483       -1.59085376810488        1.03269717614605
H           -3.63810332594319        1.44848562039848        1.02792765877536
H           -3.40034482550853        0.29666113946651        3.11107330161571
H            1.31167252726180        0.25219841710160        2.71955217431140
H            0.95180912155609        2.89258653240780        1.79857024979656
H            3.06126393851552        2.14032138541287        1.05443543631446
H            3.16065623524452        2.02880928541749        3.43822213624996
