48
-84.845034346004
C 5.729953 0.835828 0.465089
O 4.971109 -0.133510 -0.247947
C 3.636453 0.181247 -0.390889
O 3.011303 0.070559 0.873958
C 1.623899 0.315929 0.849802
C 1.101565 0.264231 2.303078
O 0.532896 1.471055 2.735308
C 0.898767 -0.701505 -0.053708
O -0.464587 -0.323304 -0.102347
C -1.437815 -1.221923 0.355246
O -2.130102 -0.658557 1.433340
C -2.739763 0.591453 1.118147
C -3.262012 1.203027 2.425422
O -2.396380 2.169492 2.957840
C -3.831493 0.365150 0.061874
O -4.523411 1.535887 -0.281212
C -3.181434 -0.271874 -1.179004
O -4.138447 -0.618382 -2.151562
C -2.435292 -1.547011 -0.775231
O -1.735621 -2.105376 -1.856861
C 1.496280 -0.668996 -1.464824
O 1.040608 -1.726126 -2.268338
C 3.027850 -0.789259 -1.411144
O 3.585080 -0.494167 -2.662437
H 5.361763 0.939092 1.487936
H 5.686759 1.804037 -0.043729
H 6.750101 0.461857 0.468946
H 3.507742 1.218806 -0.770689
H 1.426022 1.317316 0.431200
H 1.936822 -0.041315 2.942878
H 0.303407 -0.475695 2.386486
H 1.220753 2.143356 2.825780
H 1.017780 -1.710408 0.360688
H -0.986959 -2.149942 0.727664
H -1.976155 1.264239 0.699971
H -3.433827 0.384354 3.135719
H -4.206744 1.718066 2.235502
H -1.503337 1.798780 3.044859
H -4.587215 -0.321855 0.460210
H -3.893229 2.245047 -0.470064
H -2.450522 0.435974 -1.606075
H -4.810467 0.077516 -2.176787
H -3.166339 -2.268774 -0.380164
H -2.352876 -2.172786 -2.600876
H 1.235596 0.299925 -1.924127
H 0.072292 -1.811805 -2.179039
H 3.289813 -1.810610 -1.096526
H 3.179411 -1.089050 -3.309880
