48
-84.852830996641
C 5.512715 1.296212 -0.287264
O 4.404324 1.183258 0.601179
C 3.376268 0.372095 0.155937
O 2.774981 0.939474 -0.987251
C 1.686729 0.174529 -1.472278
C 1.197119 0.846333 -2.760879
O 2.181018 0.866410 -3.759483
C 0.552869 0.090321 -0.428749
O -0.461570 -0.753983 -0.950831
C -1.788487 -0.331653 -1.195251
O -2.640433 -1.368234 -0.803786
C -2.734537 -1.541102 0.610110
C -3.602683 -2.786510 0.839639
O -3.692909 -3.132244 2.199979
C -3.351907 -0.290248 1.255056
O -3.430154 -0.378573 2.654593
C -2.477599 0.922328 0.912280
O -3.077998 2.133081 1.316109
C -2.304815 0.996486 -0.608560
O -1.509732 2.080474 -1.012708
C 1.135588 -0.534378 0.850508
O 0.171867 -0.563500 1.870846
C 2.361127 0.267200 1.301566
O 2.904264 -0.387916 2.416801
H 5.219007 1.812612 -1.201123
H 5.906467 0.305981 -0.531562
H 6.254836 1.877301 0.252278
H 3.753263 -0.641825 -0.101005
H 2.027232 -0.847222 -1.701395
H 0.850523 1.858268 -2.521152
H 0.363372 0.268234 -3.159648
H 2.939887 1.368639 -3.429781
H 0.181207 1.092806 -0.218734
H -1.911824 -0.280278 -2.289402
H -1.730644 -1.687966 1.031307
H -3.201592 -3.604613 0.234465
H -4.620677 -2.577675 0.503132
H -2.857284 -3.523097 2.493204
H -4.355753 -0.130803 0.824442
H -3.790647 -1.253149 2.888438
H -1.508012 0.796182 1.410337
H -3.318468 2.050548 2.250610
H -3.316520 1.107767 -1.035236
H -1.891701 2.882889 -0.619681
H 1.452835 -1.563305 0.615038
H 0.626917 -0.790765 2.698804
H 2.048157 1.289908 1.559458
H 3.693372 0.089696 2.713126
