      -----------------------------------------------------------      
     |                   =====================                   |     
     |                           x T B                           |     
     |                   =====================                   |     
     |                         S. Grimme                         |     
     |          Mulliken Center for Theoretical Chemistry        |     
     |                    University of Bonn                     |     
      -----------------------------------------------------------      

   * xtb version 6.7.1 (edcfbbe) compiled by 'conda@5dfe00f5fb80' on 2026-06-10

   xtb is free software: you can redistribute it and/or modify it under
   the terms of the GNU Lesser General Public License as published by
   the Free Software Foundation, either version 3 of the License, or
   (at your option) any later version.
   
   xtb is distributed in the hope that it will be useful,
   but WITHOUT ANY WARRANTY; without even the implied warranty of
   MERCHANTABILITY or FITNESS FOR A PARTICULAR PURPOSE.  See the
   GNU Lesser General Public License for more details.
   
   Cite this work as:
   * C. Bannwarth, E. Caldeweyher, S. Ehlert, A. Hansen, P. Pracht,
     J. Seibert, S. Spicher, S. Grimme, WIREs Comput. Mol. Sci., 2020, 11,
     e01493. DOI: 10.1002/wcms.1493
   
   for GFN2-xTB:
   * C. Bannwarth, S. Ehlert and S. Grimme., J. Chem. Theory Comput., 2019,
     15, 1652-1671. DOI: 10.1021/acs.jctc.8b01176
   for GFN1-xTB:
   * S. Grimme, C. Bannwarth, P. Shushkov, J. Chem. Theory Comput., 2017,
     13, 1989-2009. DOI: 10.1021/acs.jctc.7b00118
   for GFN0-xTB:
   * P. Pracht, E. Caldeweyher, S. Ehlert, S. Grimme, ChemRxiv, 2019, preprint.
     DOI: 10.26434/chemrxiv.8326202.v1
   for GFN-FF:
   * S. Spicher and S. Grimme, Angew. Chem. Int. Ed., 2020, 59, 15665-15673.
     DOI: 10.1002/anie.202004239
   
   for ALPB and GBSA implicit solvation:
   * S. Ehlert, M. Stahn, S. Spicher, S. Grimme, J. Chem. Theory Comput.,
     2021, 17, 4250-4261. DOI: 10.1021/acs.jctc.1c00471
   
   for ddCOSMO and CPCM-X implicit solvation:
   * M. Stahn, S. Ehlert, S. Grimme, J. Phys. Chem. A,
     2023, XX, XXXX-XXXX. DOI: 10.1021/acs.jpca.3c04382
   
   for DFT-D4:
   * E. Caldeweyher, C. Bannwarth and S. Grimme, J. Chem. Phys., 2017,
     147, 034112. DOI: 10.1063/1.4993215
   * E. Caldeweyher, S. Ehlert, A. Hansen, H. Neugebauer, S. Spicher,
     C. Bannwarth and S. Grimme, J. Chem. Phys., 2019, 150, 154122.
     DOI: 10.1063/1.5090222
   * E. Caldeweyher, J.-M. Mewes, S. Ehlert and S. Grimme, Phys. Chem. Chem. Phys.
     2020, 22, 8499-8512. DOI: 10.1039/D0CP00502A
   
   for sTDA-xTB:
   * S. Grimme and C. Bannwarth, J. Chem. Phys., 2016, 145, 054103.
     DOI: 10.1063/1.4959605
   
   in the mass-spec context:
   * V. Asgeirsson, C. Bauer and S. Grimme, Chem. Sci., 2017, 8, 4879.
     DOI: 10.1039/c7sc00601b
   * J. Koopman and S. Grimme, ACS Omega 2019, 4, 12, 15120-15133.
     DOI: 10.1021/acsomega.9b02011
   
   for metadynamics refer to:
   * S. Grimme, J. Chem. Theory Comput., 2019, 155, 2847-2862
     DOI: 10.1021/acs.jctc.9b00143
   
   for SPH calculations refer to:
   * S. Spicher and S. Grimme, J. Chem. Theory Comput., 2021, 17, 1701-1714
     DOI: 10.1021/acs.jctc.0c01306
   
   for ONIOM refer to:
   * C. Plett, A. Katbashev, S. Ehlert, S. Grimme, M. Bursch,
     Phys. Chem. Chem. Phys., 2023, 25, 17860-17868. DOI: 10.1039/D3CP02178E
   
   for DIPRO refer to:
   * J. Kohn, N. Gildemeister, S. Grimme, D. Fazzi, A. Hansen,
     J. Chem. Phys., 2023, just accepted.
   
   for PTB refer to:
   * S. Grimme, M. Mueller, A. Hansen, J. Chem. Phys., 2023, 158, 124111.
     DOI: 10.1063/5.0137838
   
   with help from (in alphabetical order)
   P. Atkinson, C. Bannwarth, F. Bohle, G. Brandenburg, E. Caldeweyher
   M. Checinski, S. Dohm, S. Ehlert, S. Ehrlich, I. Gerasimov, C. Hölzer
   A. Katbashev, J. Kohn, J. Koopman, C. Lavigne, S. Lehtola, F. März, M. Müller,
   F. Musil, H. Neugebauer, J. Pisarek, C. Plett, P. Pracht, F. Pultar,
   J. Seibert, P. Shushkov, S. Spicher, M. Stahn, M. Steiner, T. Strunk,
   J. Stückrath, T. Rose, and J. Unsleber
   
 * started run on 2026/09/22 at 13:04:40.629     
   ID    Z sym.   atoms
    1    6 C      1, 3, 5, 6, 8, 10, 12, 13, 15, 17, 19, 21, 23
    2    8 O      2, 4, 7, 9, 11, 14, 16, 18, 20, 22, 24
    3    1 H      25-48
constraining angle 11 10 9 8 to  -50.0000000°, actual value:  -50.5194623°
constraining angle 10 9 8 5 to -120.0000000°, actual value: -122.0865064°

           -------------------------------------------------
          |                Calculation Setup                |
           -------------------------------------------------

          program call               : /media/aldo/Aldo/envs/chem/bin/xtb start.xyz --gfn 2 --gbsa water --opt normal --input c.inp
          coordinate file            : start.xyz
          omp threads                :                     1


           -------------------------------------------------
          |                 G F N 2 - x T B                 |
           -------------------------------------------------

        Reference                      10.1021/acs.jctc.8b01176
      * Hamiltonian:
        H0-scaling (s, p, d)           1.850000    2.230000    2.230000
        zeta-weighting                 0.500000
      * Dispersion:
        s8                             2.700000
        a1                             0.520000
        a2                             5.000000
        s9                             5.000000
      * Repulsion:
        kExp                           1.500000    1.000000
        rExp                           1.000000
      * Coulomb:
        alpha                          2.000000
        third order                    shell-resolved
        anisotropic                    true
        a3                             3.000000
        a5                             4.000000
        cn-shift                       1.200000
        cn-exp                         4.000000
        max-rad                        5.000000

      * Solvation model:               GBSA
        Solvent                        water
        Parameter file                 internal GFN2-xTB/GBSA
        Dielectric constant                8.0200E+01
        Reference state                gsolv [1 M gas/solution]
        Free energy shift                  1.8574E-03 Eh       1.1656E+00 kcal/mol
        Temperature                        2.9815E+02 K
        Density                            1.0000E+00 kg/L
        Solvent mass                       1.8000E+01 g/mol
        Interaction kernel             Still
        Born radius scaling (c1)           1.5524E+00
        Born radii integrator          GBOBC
        Born offset                        2.4628E-02 a0       4.6540E-02 AA
        H-bond correction              true
        Ion screening                  false
        Surface tension                    1.0000E-05 Eh       1.5569E+01 dyn/cm
        Grid points                               230 per atom

          ...................................................
          :                      SETUP                      :
          :.................................................:
          :  # basis functions                 120          :
          :  # atomic orbitals                 120          :
          :  # shells                           72          :
          :  # electrons                       142          :
          :  max. iterations                   250          :
          :  Hamiltonian                  GFN2-xTB          :
          :  restarted?                      false          :
          :  GBSA solvation                   true          :
          :  PC potential                    false          :
          :  electronic temp.          300.0000000     K    :
          :  accuracy                    1.0000000          :
          :  -> integral cutoff          0.2500000E+02      :
          :  -> integral neglect         0.1000000E-07      :
          :  -> SCF convergence          0.1000000E-05 Eh   :
          :  -> wf. convergence          0.1000000E-03 e    :
          :  Broyden damping             0.4000000          :
          :  net charge                          0          :
          :  unpaired electrons                  0          :
          ...................................................

 iter      E             dE          RMSdq      gap      omega  full diag
   1    -85.3436975 -0.853437E+02  0.475E+00    9.60       0.0  T
   2    -85.4388252 -0.951277E-01  0.253E+00    9.30       1.0  T
   3    -85.4416622 -0.283702E-02  0.771E-01    9.42       1.0  T
   4    -85.4433646 -0.170236E-02  0.165E-01    9.39       1.0  T
   5    -85.4435116 -0.147021E-03  0.782E-02    9.42       1.0  T
   6    -85.4435350 -0.233826E-04  0.188E-02    9.42       1.0  T
   7    -85.4435369 -0.187985E-05  0.771E-03    9.42       1.9  T
   8    -85.4435373 -0.425890E-06  0.192E-03    9.42       7.5  T
   9    -85.4435373 -0.156398E-07  0.974E-04    9.42      14.8  T
  10    -85.4435373 -0.397172E-08  0.241E-04    9.42      60.0  T

   *** convergence criteria satisfied after 10 iterations ***

         #    Occupation            Energy/Eh            Energy/eV
      -------------------------------------------------------------
         1        2.0000           -0.7408280             -20.1590
       ...           ...                  ...                  ...
        65        2.0000           -0.4322114             -11.7611
        66        2.0000           -0.4295157             -11.6877
        67        2.0000           -0.4292482             -11.6804
        68        2.0000           -0.4259327             -11.5902
        69        2.0000           -0.4242536             -11.5445
        70        2.0000           -0.4208739             -11.4526
        71        2.0000           -0.4097855             -11.1508 (HOMO)
        72                         -0.0635904              -1.7304 (LUMO)
        73                         -0.0491484              -1.3374
        74                         -0.0226826              -0.6172
        75                         -0.0101736              -0.2768
        76                         -0.0040676              -0.1107
       ...                                ...                  ...
       120                          0.3112542               8.4697
      -------------------------------------------------------------
                  HL-Gap            0.3461952 Eh            9.4205 eV
             Fermi-level           -0.2366879 Eh           -6.4406 eV

 SCC (total)                   0 d,  0 h,  0 min,  0.433 sec
 SCC setup                      ...        0 min,  0.013 sec (  2.953%)
 Dispersion                     ...        0 min,  0.006 sec (  1.319%)
 classical contributions        ...        0 min,  0.001 sec (  0.158%)
 integral evaluation            ...        0 min,  0.069 sec ( 15.964%)
 iterations                     ...        0 min,  0.196 sec ( 45.305%)
 molecular gradient             ...        0 min,  0.147 sec ( 33.938%)
 printout                       ...        0 min,  0.001 sec (  0.331%)

         :::::::::::::::::::::::::::::::::::::::::::::::::::::
         ::                     SUMMARY                     ::
         :::::::::::::::::::::::::::::::::::::::::::::::::::::
         :: total energy             -84.824453952699 Eh    ::
         :: total w/o Gsasa/hb       -84.805209547117 Eh    ::
         :: gradient norm              0.000360362743 Eh/a0 ::
         :: HOMO-LUMO gap              9.420450141098 eV    ::
         ::.................................................::
         :: SCC energy               -85.442305226751 Eh    ::
         :: -> isotropic ES            0.265265656342 Eh    ::
         :: -> anisotropic ES         -0.007596420544 Eh    ::
         :: -> anisotropic XC         -0.016534926904 Eh    ::
         :: -> dispersion             -0.047654572681 Eh    ::
         :: -> Gsolv                  -0.033733043197 Eh    ::
         ::    -> Gelec               -0.014488637614 Eh    ::
         ::    -> Gsasa               -0.000101360453 Eh    ::
         ::    -> Ghb                 -0.021000488257 Eh    ::
         ::    -> Gshift               0.001857443127 Eh    ::
         :: repulsion energy           0.617499222606 Eh    ::
         :: add. restraining           0.000352051446 Eh    ::
         :: total charge              -0.000000000000 e     ::
         :::::::::::::::::::::::::::::::::::::::::::::::::::::

      ----------------------------------------------------------- 
     |                   =====================                   |
     |                        A N C O P T                        |
     |                   =====================                   |
     |               Approximate Normal Coordinate               |
     |                Rational Function Optimizer                |
      ----------------------------------------------------------- 
      ----------------------------------------------------------- 
     |                   =====================                   |
     |                        A N C O P T                        |
     |                   =====================                   |
     |               Approximate Normal Coordinate               |
     |                Rational Function Optimizer                |
      ----------------------------------------------------------- 

          ...................................................
          :                      SETUP                      :
          :.................................................:
          :   optimization level            normal          :
          :   max. optcycles                   200          :
          :   ANC micro-cycles                  20          :
          :   degrees of freedom               138          :
          :.................................................:
          :   RF solver                   davidson          :
          :   write xtbopt.log                true          :
          :   linear?                        false          :
          :   energy convergence         0.5000000E-05 Eh   :
          :   grad. convergence          0.1000000E-02 Eh/α :
          :   maxmium RF displ.          1.0000000          :
          :   Hlow (freq-cutoff)         0.1000000E-01      :
          :   Hmax (freq-cutoff)         5.0000000          :
          :   S6 in model hess.         20.0000000          :
          ...................................................

generating ANC from exact Hessian ...
Using Lindh-Hessian (1995)
 Shifting diagonal of input Hessian by    9.6615185137219721E-003
 Lowest  eigenvalues of input Hessian
    0.000000    0.000000    0.000000    0.000000    0.000000    0.000000
    0.010000    0.010279    0.010819    0.010968    0.012162    0.012897
    0.013375    0.013989    0.014590    0.014985    0.015192    0.015420
 Highest eigenvalues
    1.534149    1.556531    1.600329    1.682852    1.725829    1.894849


........................................................................
.............................. CYCLE    1 ..............................
........................................................................

 iter      E             dE          RMSdq      gap      omega  full diag
   1    -85.4435373 -0.854435E+02  0.103E-04    9.42       0.0  T
   2    -85.4435373 -0.523528E-10  0.673E-05    9.42     214.5  T
   3    -85.4435373 -0.162572E-10  0.278E-05    9.42     520.0  T
     SCC iter.                  ...        0 min,  0.046 sec
     gradient                   ...        0 min,  0.186 sec
 * total energy  :   -84.8244540 Eh     change       -0.5175167E-09 Eh
   gradient norm :     0.0003586 Eh/α   predicted     0.0000000E+00 (-100.00%)
   displ. norm   :     0.0096623 α      lambda       -0.1365063E-06
   maximum displ.:     0.0045983 α      in ANC's #2, #6, #3, ...

   *** GEOMETRY OPTIMIZATION CONVERGED AFTER 1 ITERATIONS ***

------------------------------------------------------------------------
 total energy gain   :        -0.0000000 Eh       -0.0000 kcal/mol
 total RMSD          :         0.0000000 a0        0.0000 Å
 total power (kW/mol):        -0.0000014 (step)   -0.0000 (real)
------------------------------------------------------------------------

 ANCopt (total)                0 d,  0 h,  0 min,  0.465 sec
 optimizer setup                ...        0 min,  0.000 sec (  0.064%)
 model hessian                  ...        0 min,  0.164 sec ( 35.342%)
 ANC generation                 ...        0 min,  0.010 sec (  2.186%)
 coordinate transformation      ...        0 min,  0.000 sec (  0.020%)
 single point calculation       ...        0 min,  0.287 sec ( 61.685%)
 optimization log               ...        0 min,  0.001 sec (  0.132%)
 hessian update                 ...        0 min,  0.000 sec (  0.001%)
 rational function              ...        0 min,  0.000 sec (  0.065%)

================
 final structure:
================
48
 xtb: 6.7.1 (edcfbbe)
C            5.10618100000000       -0.28480600000000       -1.52398700000000
O            3.98854300000000        0.59397000000000       -1.54093200000000
C            3.24797000000000        0.61234900000000       -0.37765100000000
O            2.52134800000000       -0.59694900000000       -0.28562200000000
C            1.68030000000000       -0.69572600000000        0.85199400000000
C            1.16979800000000       -2.13711800000000        0.87958600000000
O            2.19887300000000       -3.03994300000000        1.18229100000000
C            0.58826200000000        0.39061300000000        0.76965500000000
O           -0.27148300000000        0.39165800000000        1.89840700000000
C           -1.66653900000000        0.22712000000000        1.82559600000000
O           -2.28912100000000        1.07574800000000        0.89937500000000
C           -2.56112600000000        0.65146600000000       -0.43465100000000
C           -3.43027100000000        1.77005300000000       -1.03178600000000
O           -2.72553400000000        2.98231500000000       -1.07150100000000
C           -3.24401300000000       -0.71837300000000       -0.48591200000000
O           -3.47226500000000       -1.16118500000000       -1.79676400000000
C           -2.38663800000000       -1.71883400000000        0.30409600000000
O           -2.99746600000000       -2.98398400000000        0.36987800000000
C           -2.23895500000000       -1.20826000000000        1.74290600000000
O           -1.47844500000000       -2.06591600000000        2.54451700000000
C            1.26455600000000        1.77137900000000        0.69135200000000
O            0.35049700000000        2.82737700000000        0.55216600000000
C            2.30508800000000        1.82059800000000       -0.44048300000000
O            3.08145700000000        2.98280200000000       -0.33965200000000
H            4.78186700000000       -1.32512200000000       -1.45445200000000
H            5.76810200000000       -0.04772800000000       -0.68560500000000
H            5.62234500000000       -0.11698600000000       -2.46552100000000
H            3.89958700000000        0.71681500000000        0.51602500000000
H            2.26836100000000       -0.51944100000000        1.76758400000000
H            0.73460800000000       -2.37503900000000       -0.10088300000000
H            0.42267200000000       -2.23883800000000        1.66737100000000
H            2.90640600000000       -2.92038800000000        0.53537200000000
H            0.03403300000000        0.21821700000000       -0.15942300000000
H           -1.96376300000000        0.62639600000000        2.80662600000000
H           -1.63551000000000        0.59908700000000       -1.03048300000000
H           -4.34582900000000        1.86171300000000       -0.43719400000000
H           -3.69151000000000        1.51941100000000       -2.06128000000000
H           -2.55795900000000        3.25937600000000       -0.16019100000000
H           -4.23541600000000       -0.65706800000000       -0.02323500000000
H           -2.64569900000000       -1.16785000000000       -2.30001900000000
H           -1.39503900000000       -1.81067400000000       -0.16767300000000
H           -3.40550900000000       -3.17508000000000       -0.48709600000000
H           -3.26394000000000       -1.13564500000000        2.14705300000000
H           -1.86383100000000       -2.95213500000000        2.46978200000000
H            1.76732700000000        1.95716300000000        1.64763900000000
H           -0.21929100000000        2.68370700000000       -0.21802800000000
H            1.79427600000000        1.78336300000000       -1.41773300000000
H            2.48269400000000        3.73038600000000       -0.18803000000000

 Bond Distances (Angstroems)
 ---------------------------
C1-O2=1.4218         C1-H25=1.0919        C1-H26=1.0942        C1-H27=1.0868        O2-C1=1.4218         O2-C3=1.3791         
C3-O2=1.3791         C3-O4=1.4138         C3-C23=1.5339        C3-H28=1.1109        O4-C3=1.4138         O4-C5=1.4182         
C5-O4=1.4182         C5-C6=1.5294         C5-C8=1.5425         C5-H29=1.1024        C6-C5=1.5294         C6-O7=1.4020         
C6-H30=1.0988        C6-H31=1.0905        O7-C6=1.4020         O7-H32=0.9661        C8-C5=1.5425         C8-O9=1.4189         
C8-C21=1.5395        C8-H33=1.0955        O9-C8=1.4189         O9-C10=1.4066        C10-O9=1.4066        C10-O11=1.4020       
C10-C19=1.5475       C10-H34=1.1001       O11-C10=1.4020       O11-C12=1.4261       C12-O11=1.4261       C12-C13=1.5373       
C12-C15=1.5315       C12-H35=1.1021       C13-C12=1.5373       C13-O14=1.4028       C13-H36=1.0955       C13-H37=1.0913       
O14-C13=1.4028       O14-H38=0.9671       C15-C12=1.5315       C15-O16=1.4023       C15-C17=1.5363       C15-H39=1.0958       
O16-C15=1.4023       O16-H40=0.9677       C17-C15=1.5363       C17-O18=1.4064       C17-C19=1.5338       C17-H41=1.1019       
O18-C17=1.4064       O18-H42=0.9682       C19-C10=1.5475       C19-C17=1.5338       C19-O20=1.3988       C19-H43=1.1042       
O20-C19=1.3988       O20-H44=0.9693       C21-C8=1.5395        C21-O22=1.4036       C21-C23=1.5382       C21-H45=1.0963       
O22-C21=1.4036       O22-H46=0.9688       C23-C3=1.5339        C23-C21=1.5382       C23-O24=1.4013       C23-H47=1.1033       
O24-C23=1.4013       O24-H48=0.9697       H25-C1=1.0919        H26-C1=1.0942        H27-C1=1.0868        H28-C3=1.1109        
H29-C5=1.1024        H30-C6=1.0988        H31-C6=1.0905        H32-O7=0.9661        H33-C8=1.0955        H34-C10=1.1001       
H35-C12=1.1021       H36-C13=1.0955       H37-C13=1.0913       H38-O14=0.9671       H39-C15=1.0958       H40-O16=0.9677       
H41-C17=1.1019       H42-O18=0.9682       H43-C19=1.1042       H44-O20=0.9693       H45-C21=1.0963       H46-O22=0.9688       
H47-C23=1.1033       H48-O24=0.9697       
 C  H  Rav=1.0977 sigma=0.0059  Rmin=1.0868  Rmax=1.1109    17
 C  C  Rav=1.5370 sigma=0.0051  Rmin=1.5294  Rmax=1.5475    10
 O  H  Rav=0.9681 sigma=0.0012  Rmin=0.9661  Rmax=0.9697     7
 O  C  Rav=1.4069 sigma=0.0112  Rmin=1.3791  Rmax=1.4261    15

 selected bond angles (degree)
 --------------------
H25-C1-O2=110.86               H26-C1-O2=110.53               H26-C1-H25=109.71              H27-C1-O2=105.52               
H27-C1-H25=110.08              H27-C1-H26=110.06              C3-O2-C1=114.85                O4-C3-O2=108.63                
C23-C3-O2=107.82               C23-C3-O4=111.13               H28-C3-O2=111.40               H28-C3-O4=109.24               
H28-C3-C23=108.63              C5-O4-C3=114.62                C6-C5-O4=106.15                C8-C5-O4=109.15                
C8-C5-C6=115.37                H29-C5-O4=109.80               H29-C5-C6=108.29               H29-C5-C8=108.02               
O7-C6-C5=111.46                H30-C6-C5=108.67               H30-C6-O7=110.12               H31-C6-C5=109.25               
H31-C6-O7=106.67               H31-C6-H30=110.68              H32-O7-C6=108.26               O9-C8-C5=112.77                
C21-C8-C5=108.87               C21-C8-O9=107.82               H33-C8-C5=107.01               H33-C8-O9=111.61               
H33-C8-C21=108.68              C10-O9-C8=124.03               O11-C10-O9=113.82              C19-C10-O9=118.56              
C19-C10-O11=111.22             H34-C10-O9=100.33              H34-C10-O11=104.45             H34-C10-C19=106.52             

 selected dihedral angles (degree)
 ---------------------------------
C3-O2-C1-H25= 65.61           C3-O2-C1-H26=303.72           C3-O2-C1-H27=184.76           O4-C3-O2-C1=287.58            
C23-C3-O2-C1=167.05           H28-C3-O2-C1= 47.95           C5-O4-C3-O2=181.78            C5-O4-C3-C23=300.24           
C5-O4-C3-H28= 60.08           C6-C5-O4-C3=188.77            C8-C5-O4-C3= 63.84            H29-C5-O4-C3=305.61           
O7-C6-C5-O4= 69.10            O7-C6-C5-C8=190.10            O7-C6-C5-H29=311.25           H30-C6-C5-O4=307.57           
H30-C6-C5-C8= 68.57           H30-C6-C5-H29=189.72          H31-C6-C5-O4=186.72           H31-C6-C5-C8=307.73           
H31-C6-C5-H29= 68.88          H32-O7-C6-C5=303.49           H32-O7-C6-H30= 64.18          H32-O7-C6-H31=184.32          
O9-C8-C5-O4=182.10            O9-C8-C5-C6= 62.73            O9-C8-C5-H29=301.44           C21-C8-C5-O4=301.71           
C21-C8-C5-C6=182.34           C21-C8-C5-H29= 61.05          H33-C8-C5-O4= 59.00           H33-C8-C5-C6=299.63           
H33-C8-C5-H29=178.34          C10-O9-C8-C5=237.91           C10-O9-C8-C21=117.70          C10-O9-C8-H33=358.42          
O11-C10-O9-C8=309.48          C19-C10-O9-C8= 83.16          H34-C10-O9-C8=198.52          
           -------------------------------------------------
          |                Final Singlepoint                |
           -------------------------------------------------

          ...................................................
          :                      SETUP                      :
          :.................................................:
          :  # basis functions                 120          :
          :  # atomic orbitals                 120          :
          :  # shells                           72          :
          :  # electrons                       142          :
          :  max. iterations                   250          :
          :  Hamiltonian                  GFN2-xTB          :
          :  restarted?                      false          :
          :  GBSA solvation                   true          :
          :  PC potential                    false          :
          :  electronic temp.          300.0000000     K    :
          :  accuracy                    1.0000000          :
          :  -> integral cutoff          0.2500000E+02      :
          :  -> integral neglect         0.1000000E-07      :
          :  -> SCF convergence          0.1000000E-05 Eh   :
          :  -> wf. convergence          0.1000000E-03 e    :
          :  Broyden damping             0.4000000          :
          :  net charge                          0          :
          :  unpaired electrons                  0          :
          ...................................................

 iter      E             dE          RMSdq      gap      omega  full diag
   1    -85.4435373 -0.854435E+02  0.832E-06    9.42       0.0  T
   2    -85.4435373 -0.426326E-12  0.504E-06    9.42    2861.7  T
   3    -85.4435373 -0.710543E-13  0.200E-06    9.42    7208.0  T

   *** convergence criteria satisfied after 3 iterations ***

         #    Occupation            Energy/Eh            Energy/eV
      -------------------------------------------------------------
         1        2.0000           -0.7408300             -20.1590
       ...           ...                  ...                  ...
        65        2.0000           -0.4322132             -11.7611
        66        2.0000           -0.4295183             -11.6878
        67        2.0000           -0.4292500             -11.6805
        68        2.0000           -0.4259344             -11.5903
        69        2.0000           -0.4242558             -11.5446
        70        2.0000           -0.4208761             -11.4526
        71        2.0000           -0.4097876             -11.1509 (HOMO)
        72                         -0.0635923              -1.7304 (LUMO)
        73                         -0.0491505              -1.3375
        74                         -0.0226852              -0.6173
        75                         -0.0101753              -0.2769
        76                         -0.0040695              -0.1107
       ...                                ...                  ...
       120                          0.3112520               8.4696
      -------------------------------------------------------------
                  HL-Gap            0.3461953 Eh            9.4205 eV
             Fermi-level           -0.2366899 Eh           -6.4407 eV

 SCC (total)                   0 d,  0 h,  0 min,  0.332 sec
 SCC setup                      ...        0 min,  0.005 sec (  1.593%)
 Dispersion                     ...        0 min,  0.003 sec (  1.020%)
 classical contributions        ...        0 min,  0.001 sec (  0.201%)
 integral evaluation            ...        0 min,  0.072 sec ( 21.711%)
 iterations                     ...        0 min,  0.050 sec ( 15.043%)
 molecular gradient             ...        0 min,  0.199 sec ( 59.940%)
 printout                       ...        0 min,  0.002 sec (  0.475%)

         :::::::::::::::::::::::::::::::::::::::::::::::::::::
         ::                     SUMMARY                     ::
         :::::::::::::::::::::::::::::::::::::::::::::::::::::
         :: total energy             -84.824453953225 Eh    ::
         :: total w/o Gsasa/hb       -84.805209111934 Eh    ::
         :: gradient norm              0.000359050441 Eh/a0 ::
         :: HOMO-LUMO gap              9.420453666851 eV    ::
         ::.................................................::
         :: SCC energy               -85.442305227276 Eh    ::
         :: -> isotropic ES            0.265270021654 Eh    ::
         :: -> anisotropic ES         -0.007597618465 Eh    ::
         :: -> anisotropic XC         -0.016535120953 Eh    ::
         :: -> dispersion             -0.047654619233 Eh    ::
         :: -> Gsolv                  -0.033733940913 Eh    ::
         ::    -> Gelec               -0.014489099622 Eh    ::
         ::    -> Gsasa               -0.000101360453 Eh    ::
         ::    -> Ghb                 -0.021000923965 Eh    ::
         ::    -> Gshift               0.001857443127 Eh    ::
         :: repulsion energy           0.617499222606 Eh    ::
         :: add. restraining           0.000352051446 Eh    ::
         :: total charge               0.000000000000 e     ::
         :::::::::::::::::::::::::::::::::::::::::::::::::::::

========================================================================
 RELAXED SCAN
------------------------------------------------------------------------
 output written to xtbscan.log
 scaning constraint 2
... step 1 ...
      ----------------------------------------------------------- 
     |                   =====================                   |
     |                        A N C O P T                        |
     |                   =====================                   |
     |               Approximate Normal Coordinate               |
     |                Rational Function Optimizer                |
      ----------------------------------------------------------- 
 current energy:         -84.82445395
    bias energy:           0.00035205
unbiased energy:         -84.82480600
... step 2 ...
      ----------------------------------------------------------- 
     |                   =====================                   |
     |                        A N C O P T                        |
     |                   =====================                   |
     |               Approximate Normal Coordinate               |
     |                Rational Function Optimizer                |
      ----------------------------------------------------------- 
 current energy:         -84.82090092
    bias energy:           0.00050965
unbiased energy:         -84.82141057
... step 3 ...
      ----------------------------------------------------------- 
     |                   =====================                   |
     |                        A N C O P T                        |
     |                   =====================                   |
     |               Approximate Normal Coordinate               |
     |                Rational Function Optimizer                |
      ----------------------------------------------------------- 
 current energy:         -84.81764580
    bias energy:           0.00027830
unbiased energy:         -84.81792410
... step 4 ...
      ----------------------------------------------------------- 
     |                   =====================                   |
     |                        A N C O P T                        |
     |                   =====================                   |
     |               Approximate Normal Coordinate               |
     |                Rational Function Optimizer                |
      ----------------------------------------------------------- 
 current energy:         -84.81509030
    bias energy:           0.00022624
unbiased energy:         -84.81531654
... step 5 ...
      ----------------------------------------------------------- 
     |                   =====================                   |
     |                        A N C O P T                        |
     |                   =====================                   |
     |               Approximate Normal Coordinate               |
     |                Rational Function Optimizer                |
      ----------------------------------------------------------- 
 current energy:         -84.81359402
    bias energy:           0.00010675
unbiased energy:         -84.81370077
... step 6 ...
      ----------------------------------------------------------- 
     |                   =====================                   |
     |                        A N C O P T                        |
     |                   =====================                   |
     |               Approximate Normal Coordinate               |
     |                Rational Function Optimizer                |
      ----------------------------------------------------------- 
 current energy:         -84.81735284
    bias energy:           0.00053064
unbiased energy:         -84.81788348
... step 7 ...
      ----------------------------------------------------------- 
     |                   =====================                   |
     |                        A N C O P T                        |
     |                   =====================                   |
     |               Approximate Normal Coordinate               |
     |                Rational Function Optimizer                |
      ----------------------------------------------------------- 
 current energy:         -84.81836885
    bias energy:           0.00038863
unbiased energy:         -84.81875747
... step 8 ...
      ----------------------------------------------------------- 
     |                   =====================                   |
     |                        A N C O P T                        |
     |                   =====================                   |
     |               Approximate Normal Coordinate               |
     |                Rational Function Optimizer                |
      ----------------------------------------------------------- 
 current energy:         -84.81935446
    bias energy:           0.00023344
unbiased energy:         -84.81958790
... step 9 ...
      ----------------------------------------------------------- 
     |                   =====================                   |
     |                        A N C O P T                        |
     |                   =====================                   |
     |               Approximate Normal Coordinate               |
     |                Rational Function Optimizer                |
      ----------------------------------------------------------- 
 current energy:         -84.81992693
    bias energy:           0.00008049
unbiased energy:         -84.82000742
... step 10 ...
      ----------------------------------------------------------- 
     |                   =====================                   |
     |                        A N C O P T                        |
     |                   =====================                   |
     |               Approximate Normal Coordinate               |
     |                Rational Function Optimizer                |
      ----------------------------------------------------------- 
 current energy:         -84.82027096
    bias energy:           0.00000050
unbiased energy:         -84.82027146
... step 11 ...
      ----------------------------------------------------------- 
     |                   =====================                   |
     |                        A N C O P T                        |
     |                   =====================                   |
     |               Approximate Normal Coordinate               |
     |                Rational Function Optimizer                |
      ----------------------------------------------------------- 
 current energy:         -84.82027449
    bias energy:           0.00003961
unbiased energy:         -84.82031410
... step 12 ...
      ----------------------------------------------------------- 
     |                   =====================                   |
     |                        A N C O P T                        |
     |                   =====================                   |
     |               Approximate Normal Coordinate               |
     |                Rational Function Optimizer                |
      ----------------------------------------------------------- 
 current energy:         -84.82000699
    bias energy:           0.00012910
unbiased energy:         -84.82013609
... step 13 ...
      ----------------------------------------------------------- 
     |                   =====================                   |
     |                        A N C O P T                        |
     |                   =====================                   |
     |               Approximate Normal Coordinate               |
     |                Rational Function Optimizer                |
      ----------------------------------------------------------- 
 current energy:         -84.82018764
    bias energy:           0.00006767
unbiased energy:         -84.82025532
... step 14 ...
      ----------------------------------------------------------- 
     |                   =====================                   |
     |                        A N C O P T                        |
     |                   =====================                   |
     |               Approximate Normal Coordinate               |
     |                Rational Function Optimizer                |
      ----------------------------------------------------------- 
 current energy:         -84.82095979
    bias energy:           0.00009676
unbiased energy:         -84.82105655
... step 15 ...
      ----------------------------------------------------------- 
     |                   =====================                   |
     |                        A N C O P T                        |
     |                   =====================                   |
     |               Approximate Normal Coordinate               |
     |                Rational Function Optimizer                |
      ----------------------------------------------------------- 
 current energy:         -84.82180920
    bias energy:           0.00008581
unbiased energy:         -84.82189501
... step 16 ...
      ----------------------------------------------------------- 
     |                   =====================                   |
     |                        A N C O P T                        |
     |                   =====================                   |
     |               Approximate Normal Coordinate               |
     |                Rational Function Optimizer                |
      ----------------------------------------------------------- 
 current energy:         -84.83032517
    bias energy:           0.00010887
unbiased energy:         -84.83043405
... step 17 ...
      ----------------------------------------------------------- 
     |                   =====================                   |
     |                        A N C O P T                        |
     |                   =====================                   |
     |               Approximate Normal Coordinate               |
     |                Rational Function Optimizer                |
      ----------------------------------------------------------- 
 current energy:         -84.83141086
    bias energy:           0.00005682
unbiased energy:         -84.83146768
... step 18 ...
      ----------------------------------------------------------- 
     |                   =====================                   |
     |                        A N C O P T                        |
     |                   =====================                   |
     |               Approximate Normal Coordinate               |
     |                Rational Function Optimizer                |
      ----------------------------------------------------------- 
 current energy:         -84.83167515
    bias energy:           0.00003938
unbiased energy:         -84.83171453
... step 19 ...
      ----------------------------------------------------------- 
     |                   =====================                   |
     |                        A N C O P T                        |
     |                   =====================                   |
     |               Approximate Normal Coordinate               |
     |                Rational Function Optimizer                |
      ----------------------------------------------------------- 
 current energy:         -84.83091937
    bias energy:           0.00010075
unbiased energy:         -84.83102011
... step 20 ...
      ----------------------------------------------------------- 
     |                   =====================                   |
     |                        A N C O P T                        |
     |                   =====================                   |
     |               Approximate Normal Coordinate               |
     |                Rational Function Optimizer                |
      ----------------------------------------------------------- 
 current energy:         -84.83224837
    bias energy:           0.00017283
unbiased energy:         -84.83242120
... step 21 ...
      ----------------------------------------------------------- 
     |                   =====================                   |
     |                        A N C O P T                        |
     |                   =====================                   |
     |               Approximate Normal Coordinate               |
     |                Rational Function Optimizer                |
      ----------------------------------------------------------- 
 current energy:         -84.82931213
    bias energy:           0.00018367
unbiased energy:         -84.82949580
... step 22 ...
      ----------------------------------------------------------- 
     |                   =====================                   |
     |                        A N C O P T                        |
     |                   =====================                   |
     |               Approximate Normal Coordinate               |
     |                Rational Function Optimizer                |
      ----------------------------------------------------------- 
 current energy:         -84.82824644
    bias energy:           0.00013003
unbiased energy:         -84.82837647
... step 23 ...
      ----------------------------------------------------------- 
     |                   =====================                   |
     |                        A N C O P T                        |
     |                   =====================                   |
     |               Approximate Normal Coordinate               |
     |                Rational Function Optimizer                |
      ----------------------------------------------------------- 
 current energy:         -84.82642584
    bias energy:           0.00016243
unbiased energy:         -84.82658827
... step 24 ...
      ----------------------------------------------------------- 
     |                   =====================                   |
     |                        A N C O P T                        |
     |                   =====================                   |
     |               Approximate Normal Coordinate               |
     |                Rational Function Optimizer                |
      ----------------------------------------------------------- 
 current energy:         -84.82430731
    bias energy:           0.00019181
unbiased energy:         -84.82449913
... step 25 ...
      ----------------------------------------------------------- 
     |                   =====================                   |
     |                        A N C O P T                        |
     |                   =====================                   |
     |               Approximate Normal Coordinate               |
     |                Rational Function Optimizer                |
      ----------------------------------------------------------- 
 current energy:         -84.82256133
    bias energy:           0.00010555
unbiased energy:         -84.82266688
... step 26 ...
      ----------------------------------------------------------- 
     |                   =====================                   |
     |                        A N C O P T                        |
     |                   =====================                   |
     |               Approximate Normal Coordinate               |
     |                Rational Function Optimizer                |
      ----------------------------------------------------------- 
 current energy:         -84.82120714
    bias energy:           0.00005732
unbiased energy:         -84.82126446
... step 27 ...
      ----------------------------------------------------------- 
     |                   =====================                   |
     |                        A N C O P T                        |
     |                   =====================                   |
     |               Approximate Normal Coordinate               |
     |                Rational Function Optimizer                |
      ----------------------------------------------------------- 
 current energy:         -84.82123674
    bias energy:           0.00006163
unbiased energy:         -84.82129837
... step 28 ...
      ----------------------------------------------------------- 
     |                   =====================                   |
     |                        A N C O P T                        |
     |                   =====================                   |
     |               Approximate Normal Coordinate               |
     |                Rational Function Optimizer                |
      ----------------------------------------------------------- 
 current energy:         -84.82291151
    bias energy:           0.00008128
unbiased energy:         -84.82299279
... step 29 ...
      ----------------------------------------------------------- 
     |                   =====================                   |
     |                        A N C O P T                        |
     |                   =====================                   |
     |               Approximate Normal Coordinate               |
     |                Rational Function Optimizer                |
      ----------------------------------------------------------- 
 current energy:         -84.82419938
    bias energy:           0.00007059
unbiased energy:         -84.82426997
... step 30 ...
      ----------------------------------------------------------- 
     |                   =====================                   |
     |                        A N C O P T                        |
     |                   =====================                   |
     |               Approximate Normal Coordinate               |
     |                Rational Function Optimizer                |
      ----------------------------------------------------------- 
 current energy:         -84.82481808
    bias energy:           0.00015667
unbiased energy:         -84.82497475
... step 31 ...
      ----------------------------------------------------------- 
     |                   =====================                   |
     |                        A N C O P T                        |
     |                   =====================                   |
     |               Approximate Normal Coordinate               |
     |                Rational Function Optimizer                |
      ----------------------------------------------------------- 
 current energy:         -84.82460429
    bias energy:           0.00030388
unbiased energy:         -84.82490817
... step 32 ...
      ----------------------------------------------------------- 
     |                   =====================                   |
     |                        A N C O P T                        |
     |                   =====================                   |
     |               Approximate Normal Coordinate               |
     |                Rational Function Optimizer                |
      ----------------------------------------------------------- 
 current energy:         -84.82373612
    bias energy:           0.00030203
unbiased energy:         -84.82403816
... step 33 ...
      ----------------------------------------------------------- 
     |                   =====================                   |
     |                        A N C O P T                        |
     |                   =====================                   |
     |               Approximate Normal Coordinate               |
     |                Rational Function Optimizer                |
      ----------------------------------------------------------- 
 current energy:         -84.82453688
    bias energy:           0.00009823
unbiased energy:         -84.82463511
... step 34 ...
      ----------------------------------------------------------- 
     |                   =====================                   |
     |                        A N C O P T                        |
     |                   =====================                   |
     |               Approximate Normal Coordinate               |
     |                Rational Function Optimizer                |
      ----------------------------------------------------------- 
 current energy:         -84.82640675
    bias energy:           0.00010460
unbiased energy:         -84.82651135
... step 35 ...
      ----------------------------------------------------------- 
     |                   =====================                   |
     |                        A N C O P T                        |
     |                   =====================                   |
     |               Approximate Normal Coordinate               |
     |                Rational Function Optimizer                |
      ----------------------------------------------------------- 
 current energy:         -84.82774162
    bias energy:           0.00003073
unbiased energy:         -84.82777235
... step 36 ...
      ----------------------------------------------------------- 
     |                   =====================                   |
     |                        A N C O P T                        |
     |                   =====================                   |
     |               Approximate Normal Coordinate               |
     |                Rational Function Optimizer                |
      ----------------------------------------------------------- 
 current energy:         -84.82777789
    bias energy:           0.00001944
unbiased energy:         -84.82779733
           -------------------------------------------------
          |                Property Printout                |
           -------------------------------------------------

    * Orbital Energies and Occupations

         #    Occupation            Energy/Eh            Energy/eV
      -------------------------------------------------------------
         1        2.0000           -0.7453810             -20.2828
       ...           ...                  ...                  ...
        59        2.0000           -0.4662676             -12.6878
        60        2.0000           -0.4645419             -12.6408
        61        2.0000           -0.4607387             -12.5373
        62        2.0000           -0.4567424             -12.4286
        63        2.0000           -0.4498136             -12.2400
        64        2.0000           -0.4442092             -12.0875
        65        2.0000           -0.4313797             -11.7384
        66        2.0000           -0.4282421             -11.6531
        67        2.0000           -0.4254575             -11.5773
        68        2.0000           -0.4243637             -11.5475
        69        2.0000           -0.4227308             -11.5031
        70        2.0000           -0.4124931             -11.2245
        71        2.0000           -0.4035054             -10.9799 (HOMO)
        72                         -0.0599512              -1.6314 (LUMO)
        73                         -0.0452809              -1.2322
        74                         -0.0191281              -0.5205
        75                         -0.0117412              -0.3195
        76                         -0.0012358              -0.0336
        77                          0.0034335               0.0934
        78                          0.0148409               0.4038
        79                          0.0218092               0.5935
        80                          0.0316156               0.8603
        81                          0.0349839               0.9520
        82                          0.0421447               1.1468
       ...                                ...                  ...
       120                          0.3016253               8.2076
      -------------------------------------------------------------
                  HL-Gap            0.3435543 Eh            9.3486 eV
             Fermi-level           -0.2317283 Eh           -6.3056 eV

     #   Z          covCN         q      C6AA      α(0)
     1   6 C        3.650     0.020    20.550     6.512
     2   8 O        1.702    -0.312    19.209     5.917
     3   6 C        3.652     0.250    17.018     5.924
     4   8 O        1.701    -0.349    19.873     6.019
     5   6 C        3.749     0.093    19.098     6.233
     6   6 C        3.676     0.073    19.584     6.341
     7   8 O        1.656    -0.466    22.173     6.357
     8   6 C        3.738     0.087    19.207     6.254
     9   8 O        1.701    -0.321    19.372     5.942
    10   6 C        3.636     0.234    17.293     5.983
    11   8 O        1.700    -0.350    19.896     6.022
    12   6 C        3.742     0.077    19.374     6.280
    13   6 C        3.675     0.067    19.672     6.355
    14   8 O        1.655    -0.465    22.148     6.353
    15   6 C        3.724     0.079    19.372     6.285
    16   8 O        1.656    -0.470    22.251     6.368
    17   6 C        3.724     0.088    19.227     6.262
    18   8 O        1.656    -0.484    22.545     6.410
    19   6 C        3.723     0.081    19.331     6.278
    20   8 O        1.655    -0.465    22.145     6.353
    21   6 C        3.729     0.090    19.184     6.253
    22   8 O        1.655    -0.463    22.102     6.346
    23   6 C        3.726     0.090    19.181     6.253
    24   8 O        1.656    -0.479    22.435     6.394
    25   1 H        0.924     0.058     2.217     2.328
    26   1 H        0.924     0.050     2.316     2.380
    27   1 H        0.925     0.089     1.888     2.149
    28   1 H        0.921     0.004     2.993     2.706
    29   1 H        0.923     0.037     2.493     2.469
    30   1 H        0.924     0.054     2.269     2.356
    31   1 H        0.924     0.062     2.171     2.304
    32   1 H        0.805     0.339     0.615     1.232
    33   1 H        0.924     0.055     2.255     2.348
    34   1 H        0.923     0.046     2.376     2.411
    35   1 H        0.924     0.071     2.079     2.255
    36   1 H        0.923     0.031     2.575     2.510
    37   1 H        0.924     0.071     2.074     2.252
    38   1 H        0.805     0.334     0.628     1.245
    39   1 H        0.924     0.058     2.229     2.335
    40   1 H        0.805     0.343     0.604     1.220
    41   1 H        0.923     0.047     2.363     2.404
    42   1 H        0.805     0.354     0.580     1.196
    43   1 H        0.924     0.071     2.077     2.254
    44   1 H        0.804     0.334     0.626     1.243
    45   1 H        0.924     0.058     2.226     2.333
    46   1 H        0.805     0.334     0.628     1.245
    47   1 H        0.923     0.038     2.481     2.463
    48   1 H        0.804     0.358     0.569     1.185

 Mol. C6AA /au·bohr⁶  :      19138.757417
 Mol. C8AA /au·bohr⁸  :     409974.481039
 Mol. α(0) /au        :        198.516474


Wiberg/Mayer (AO) data.
largest (>0.10) Wiberg bond orders for each atom

 ---------------------------------------------------------------------------
     #   Z sym  total        # sym  WBO       # sym  WBO       # sym  WBO
 ---------------------------------------------------------------------------
     1   6 C    3.924 --    25 H    0.980    26 H    0.978    27 H    0.977
                             2 O    0.963
     2   8 O    2.096 --     3 C    1.018     1 C    0.963
     3   6 C    3.935 --     2 O    1.018    23 C    0.958     4 O    0.948
                            28 H    0.942
     4   8 O    2.067 --     5 C    0.968     3 C    0.948
     5   6 C    3.943 --     6 C    0.975     4 O    0.968     8 C    0.963
                            29 H    0.956
     6   6 C    3.958 --     7 O    1.013     5 C    0.975    31 H    0.968
                            30 H    0.965
     7   8 O    1.944 --     6 C    1.013    32 H    0.870
     8   6 C    3.944 --    21 C    0.968     5 C    0.963     9 O    0.957
                            33 H    0.954
     9   8 O    2.104 --    10 C    0.998     8 C    0.957
    10   6 C    3.926 --     9 O    0.998    11 O    0.956    19 C    0.948
                            34 H    0.946
    11   8 O    2.070 --    10 C    0.956    12 C    0.951
    12   6 C    3.935 --    13 C    0.972    15 C    0.966    35 H    0.956
                            11 O    0.951
    13   6 C    3.960 --    14 O    1.014    12 C    0.972    37 H    0.968
                            36 H    0.967
    14   8 O    1.948 --    13 C    1.014    38 H    0.871
    15   6 C    3.959 --    16 O    1.007    12 C    0.966    17 C    0.959
                            39 H    0.956
    16   8 O    1.952 --    15 C    1.007    40 H    0.863
    17   6 C    3.959 --    18 O    1.003    19 C    0.961    15 C    0.959
                            41 H    0.954
    18   8 O    1.933 --    17 C    1.003    42 H    0.857
    19   6 C    3.958 --    20 O    1.007    17 C    0.961    43 H    0.956
                            10 C    0.948
    20   8 O    1.961 --    19 C    1.007    44 H    0.866
    21   6 C    3.962 --    22 O    1.003     8 C    0.968    23 C    0.959
                            45 H    0.958
    22   8 O    1.957 --    21 C    1.003    46 H    0.863
    23   6 C    3.963 --    24 O    1.006    21 C    0.959     3 C    0.958
                            47 H    0.955
    24   8 O    1.931 --    23 C    1.006    48 H    0.853
    25   1 H    0.997 --     1 C    0.980
    26   1 H    0.997 --     1 C    0.978
    27   1 H    0.992 --     1 C    0.977
    28   1 H    1.000 --     3 C    0.942
    29   1 H    0.999 --     5 C    0.956
    30   1 H    0.997 --     6 C    0.965
    31   1 H    0.996 --     6 C    0.968
    32   1 H    0.885 --     7 O    0.870
    33   1 H    0.997 --     8 C    0.954
    34   1 H    0.997 --    10 C    0.946
    35   1 H    0.995 --    12 C    0.956
    36   1 H    0.999 --    13 C    0.967
    37   1 H    0.995 --    13 C    0.968
    38   1 H    0.889 --    14 O    0.871
    39   1 H    0.997 --    15 C    0.956
    40   1 H    0.882 --    16 O    0.863
    41   1 H    0.998 --    17 C    0.954
    42   1 H    0.875 --    18 O    0.857
    43   1 H    0.995 --    19 C    0.956
    44   1 H    0.888 --    20 O    0.866
    45   1 H    0.997 --    21 C    0.958
    46   1 H    0.889 --    22 O    0.863
    47   1 H    0.999 --    23 C    0.955
    48   1 H    0.872 --    24 O    0.853
 ---------------------------------------------------------------------------

Topologies differ in total number of bonds
Writing topology from bond orders to xtbtopo.mol

molecular dipole:
                 x           y           z       tot (Debye)
 q only:       -0.733      -0.096       1.368
   full:       -0.940      -0.168       1.604       4.745
molecular quadrupole (traceless):
                xx          xy          yy          xz          yz          zz
 q only:        9.878       7.336     -16.616     -11.695       2.573       6.739
  q+dip:        4.661       6.859     -23.276     -12.884       8.404      18.615
   full:        6.959       7.329     -23.034     -13.416       6.664      16.075

           -------------------------------------------------
          |                Geometry Summary                 |
           -------------------------------------------------

      molecular mass/u    :      356.3235988
   center of mass at/Å    :       -0.0319043      -0.0397094       0.1176116
  moments of inertia/u·Å² :        0.1281984E+04   0.3595627E+04   0.4570100E+04
rotational constants/cm⁻¹ :        0.1314965E-01   0.4688371E-02   0.3688679E-02

 * 43 selected distances

     #   Z          #   Z                                           value/Å
     1   6 C        2   8 O                                       1.4214968
     2   8 O        3   6 C                                       1.3791521
     3   6 C        4   8 O                                       1.4147330
     4   8 O        5   6 C                                       1.4142100
     5   6 C        6   6 C                                       1.5336607
     6   6 C        7   8 O                                       1.4013269
     5   6 C        8   6 C                                       1.5374189 (max)
     8   6 C        9   8 O                                       1.4228544
     9   8 O       10   6 C                                       1.3892916
    10   6 C       11   8 O                                       1.4146450
    11   8 O       12   6 C                                       1.4264063
    13   6 C       14   8 O                                       1.4017151
    15   6 C       16   8 O                                       1.4030242
    17   6 C       18   8 O                                       1.4047258
    19   6 C       20   8 O                                       1.4032097
     8   6 C       21   6 C                                       1.5351284
    21   6 C       22   8 O                                       1.4055801
     3   6 C       23   6 C                                       1.5350816
    23   6 C       24   8 O                                       1.4022233
     1   6 C       25   1 H                                       1.0917110
     1   6 C       26   1 H                                       1.0943436
     1   6 C       27   1 H                                       1.0867733
     3   6 C       28   1 H                                       1.1115436
     5   6 C       29   1 H                                       1.1021722
     6   6 C       30   1 H                                       1.0968440
     6   6 C       31   1 H                                       1.0908536
     7   8 O       32   1 H                                       0.9661606 (min)
     8   6 C       33   1 H                                       1.0937415
    10   6 C       34   1 H                                       1.0989398
    12   6 C       35   1 H                                       1.0977314
    13   6 C       36   1 H                                       1.0985497
    13   6 C       37   1 H                                       1.0918122
    14   8 O       38   1 H                                       0.9680631
    15   6 C       39   1 H                                       1.0967315
    16   8 O       40   1 H                                       0.9677325
    17   6 C       41   1 H                                       1.1037834
    18   8 O       42   1 H                                       0.9680445
    19   6 C       43   1 H                                       1.0916353
    20   8 O       44   1 H                                       0.9691657
    21   6 C       45   1 H                                       1.0969120
    22   8 O       46   1 H                                       0.9681850
    23   6 C       47   1 H                                       1.1021531
    24   8 O       48   1 H                                       0.9695761
Note: The following floating-point exceptions are signalling: IEEE_UNDERFLOW_FLAG IEEE_DENORMAL
normal termination of xtb

 * 4 distinct bonds (by element types)

   Z      Z             #   av. dist./Å        max./Å        min./Å
   1 H    6 C          17     1.0968371     1.1115436     1.0867733
   6 C    6 C           4     1.5353224     1.5374189     1.5336607
   1 H    8 O           7     0.9681325     0.9695761     0.9661606
   6 C    8 O          15     1.4069729     1.4264063     1.3791521


optimized geometry written to: xtbopt.xyz


           -------------------------------------------------
          | TOTAL ENERGY              -84.824453953225 Eh   |
          | GRADIENT NORM               0.000359050441 Eh/α |
          | HOMO-LUMO GAP               9.348587606018 eV   |
           -------------------------------------------------

------------------------------------------------------------------------
 * finished run on 2026/09/22 at 13:08:22.952     
------------------------------------------------------------------------
 total:
 * wall-time:     0 d,  0 h,  3 min, 42.323 sec
 *  cpu-time:     0 d,  0 h,  3 min, 15.556 sec
 * ratio c/w:     0.880 speedup
 SCF:
 * wall-time:     0 d,  0 h,  0 min,  0.435 sec
 *  cpu-time:     0 d,  0 h,  0 min,  0.331 sec
 * ratio c/w:     0.761 speedup
 ANC optimizer:
 * wall-time:     0 d,  0 h,  3 min, 41.828 sec
 *  cpu-time:     0 d,  0 h,  3 min, 15.172 sec
 * ratio c/w:     0.880 speedup

