48
 energy: -84.824453953225 gnorm: 0.000359050441 xtb: 6.7.1 (edcfbbe)
C            5.57690645522122        1.65846208017242       -0.79021130320621
O            4.76430812176156        0.69805976643544       -0.12842279277886
C            3.58003253069473        0.40105050572844       -0.76977831998492
O            2.69897554136379        1.49875165730491       -0.62744156612780
C            1.42221832203106        1.28626294733742       -1.19729171314516
C            0.64661814960230        2.60473513073043       -1.08688305863530
O            1.27929845494298        3.64283763894826       -1.78385907064788
C            0.71587259943038        0.13147146091407       -0.46846479312945
O           -0.57222636373685       -0.08609357182783       -1.03236258522581
C           -1.66902500930105       -0.17440804061448       -0.18420917387484
O           -1.41149464980977       -1.09038873421660        0.86263256393667
C           -2.58992401552062       -1.60513209549261        1.47986667709440
C           -2.86457363193267       -3.02821378600894        0.95666250638855
O           -1.80042278827149       -3.90084858918462        1.22292592695986
C           -3.82768513372809       -0.71003906929619        1.27317868422378
O           -4.81462041390822       -0.96978269167483        2.23597067509615
C           -3.49590049108966        0.80279933703390        1.21448269559380
O           -4.51183193274667        1.48734505271125        0.52707118389583
C           -2.15373921980190        1.11822920035606        0.50546520390960
O           -1.20487384601986        1.61227234991211        1.41352527812951
C            1.56766006661862       -1.13776624539840       -0.61028319869682
O            1.03436655104292       -2.24690307490037        0.06873701481759
C            3.00564481122795       -0.86900776039767       -0.12673408943782
O            3.84324738052380       -1.94022710531804       -0.46899264255395
H            5.08532613512291        2.63287586201551       -0.81665332230941
H            5.80268816219161        1.33219770337689       -1.81009458257002
H            6.49187983527736        1.71726699070513       -0.20673746348630
H            3.74585175892557        0.20469667641507       -1.85120241315082
H            1.53096005996742        1.02109901085822       -2.26155045530655
H            0.51972229445145        2.85827669615147       -0.02731675761834
H           -0.33334614500601        2.47266669794888       -1.54752304894867
H            2.17175678041957        3.73848319209472       -1.42631725353250
H            0.63702174126778        0.39635762575301        0.58978288970691
H           -2.46327918761093       -0.53825259002754       -0.85087693446966
H           -2.34836207079574       -1.67350550582051        2.54850450984131
H           -3.06944497985090       -2.97917398001171       -0.12149981625192
H           -3.74084899752815       -3.43220186059349        1.46753311521593
H           -1.01998124985249       -3.59172706758995        0.74074242267099
H           -4.30395243901464       -0.97529808073861        0.32153439655894
H           -4.47322394429231       -0.79880020432271        3.12519474609572
H           -3.41918650089524        1.18967386426014        2.24539518359836
H           -5.36645074022622        1.26310924047112        0.92261503081628
H           -2.32738720578419        1.91000207079616       -0.22570469650081
H           -1.01287910686629        0.92069573964962        2.06478692604022
H            1.60052546286618       -1.42709913330214       -1.66783790826344
H            0.66035141617423       -1.95369549287400        0.91225582868126
H            3.00765305169348       -0.71141814518724        0.96409253624802
H            3.40577328087990       -2.75970144497990       -0.19122310089475
