48
 energy: -84.855905085197 gnorm: 0.000710638110 xtb: 6.7.1 (edcfbbe)
C            5.55933370126554       -1.25156989158674        0.22940527135561
O            4.89132210934881       -0.11682802691313        0.77399652042937
C            3.51382716695842       -0.22243021822172        0.84044562052789
O            2.97003677185194       -0.21289483219318       -0.46194921467302
C            1.56412250889673       -0.37546371130971       -0.47958885210130
C            1.13468072832288       -0.34860544969135       -1.95272193219670
O            1.50287846874580       -1.51160766420784       -2.64102642657049
C            0.83792028048176        0.71454835743016        0.33007083460553
O           -0.50629559113422        0.29467490385654        0.51640039418445
C           -1.52720043748991        1.20480719144170        0.21105670904968
O           -2.08734841442911        0.95397682405512       -1.04957889188550
C           -2.69023615356145       -0.33418539552615       -1.18717600790712
C           -3.27137728028311       -0.39873874497770       -2.60603199175376
O           -2.28461283040787       -0.30105564739193       -3.59801332494092
C           -3.78519023823617       -0.56220493023648       -0.13496815867697
O           -4.34244156583378       -1.84821876646037       -0.21525455250590
C           -3.22350608445233       -0.28874437922143        1.26753798263186
O           -4.23043641747873       -0.35164388839571        2.24933652635317
C           -2.61442074313741        1.11576191886571        1.29858717435790
O           -2.04685212653240        1.42105592920494        2.53831962783543
C            1.47355698250584        0.97737703299420        1.70299886684715
O            0.99274361219884        2.22003334274548        2.14615130534146
C            3.00607992747778        0.99005861156050        1.63120991223726
O            3.48954450768475        0.98777646153999        2.94805475934867
H            5.30127090943312       -1.38106918840438       -0.82154605431387
H            5.29535920827085       -2.15245675334588        0.78991258725142
H            6.61922777592709       -1.03849929278479        0.33318131620067
H            3.21061391673858       -1.16009336359179        1.35317787010441
H            1.30298817308390       -1.35101870419143       -0.03851201677583
H            1.57105833563162        0.54281605180375       -2.41774769960507
H            0.04790985303829       -0.29145409204445       -2.01189049314749
H            2.46788087794521       -1.56073014776437       -2.68654607217115
H            0.86578770636853        1.65790283682402       -0.22984941096669
H           -1.13882227952617        2.22829968317614        0.17039091765602
H           -1.91222570312697       -1.10347096726305       -1.06918905248061
H           -4.01324654566443        0.40128851821573       -2.71253780312055
H           -3.76073326889995       -1.36370452236894       -2.74665215473796
H           -1.88265973754284        0.57690335894193       -3.54231453407553
H           -4.61658789226403        0.12848166933930       -0.31766096351853
H           -3.64236045436895       -2.51458212737982       -0.14410026348389
H           -2.42452819980856       -1.01284848099639        1.49500367847414
H           -4.79767627531930       -1.11603390710152        2.06246529625738
H           -3.40164793962549        1.84443428001888        1.04470864270679
H           -2.68970135307878        1.18487612429780        3.22680390774806
H            1.16165014670931        0.17620503896907        2.38850355181781
H            1.33371672825688        2.38371028385521        3.03836239568038
H            3.32998082697259        1.89263175489448        1.09185252853028
H            4.45846430713205        0.98261691791373        2.93230867506857
