48
 energy: -84.854090600110 gnorm: 0.000608281644 xtb: 6.7.1 (edcfbbe)
C            5.57363647019203       -0.95549611323136        0.02772459063406
O            4.82631189683411        0.09139807606378        0.64064261371864
C            3.48335837686960       -0.18330723487397        0.80345403552487
O            2.87448486268763       -0.19375371164471       -0.47046177160325
C            1.48152761710304       -0.42282876963253       -0.47060196738929
C            1.04358226661440       -0.41034149395680       -1.93992985923364
O            1.16953634097371        0.89912935094613       -2.44052004377337
C            0.74376332710453        0.66007351985411        0.33395345379308
O           -0.61882250616845        0.29130515835664        0.51209530999523
C           -1.61354921734833        1.22912323930442        0.18869723968175
O           -2.17626109178616        0.96705535671149       -1.06927355618732
C           -2.80380096031445       -0.30797565966230       -1.15181170272017
C           -3.34778922767820       -0.47327153315001       -2.57691824983974
O           -3.56321253259685       -1.81726295416293       -2.90980528452812
C           -3.91514898639669       -0.44904451011508       -0.10180381445196
O           -4.46106840699810       -1.73901692112991       -0.20963455598883
C           -3.33799951417148       -0.18751062198771        1.29420725101870
O           -4.38723370370029       -0.26881876091890        2.22834833108918
C           -2.68556555378828        1.20228745886934        1.29010283649617
O           -2.18097195288297        1.54717840232944        2.55121946625354
C            1.35805668514540        0.75744576364150        1.74140890415755
O            0.75844859409153        1.77444267030907        2.50545791669069
C            2.88352039260744        0.90533073722912        1.70271342638721
O            3.43273312500109        0.74918351103414        2.98317275318851
H            5.19862315560599       -1.15452931608608       -0.97746745420361
H            5.51757779630372       -1.86460416175927        0.63325214925361
H            6.59607826760892       -0.59211167146929       -0.01319514845965
H            3.33432807765071       -1.17046546831944        1.29081487259724
H            1.25759430662704       -1.40436993913340       -0.02565307588701
H            1.68961157658824       -1.10629903297016       -2.48326082210919
H            0.00171918966204       -0.74793246666094       -2.00264913622365
H            1.16281672607022        0.87551984463945       -3.40706021351588
H            0.82809053241505        1.61066207115071       -0.20287208478906
H           -1.19152110628561        2.23774158859102        0.09692952827228
H           -2.06142625244357       -1.09834123866192       -0.96489043481512
H           -4.26905705079665        0.11373203776929       -2.68288646169291
H           -2.60748979174706       -0.08796546048993       -3.28022672166357
H           -4.12402911601777       -2.21393637580777       -2.22255001713070
H           -4.69229176672896        0.30840723855344       -0.29459233026757
H           -5.05303065539273       -1.88090260056944        0.54510659790860
H           -2.57018616201544       -0.94450028883448        1.51830628999432
H           -4.09976049855482        0.16034270304195        3.04835391819738
H           -3.45345820225057        1.94632474441157        1.04372157259590
H           -1.24172606433753        1.29992945563270        2.62311768941330
H            1.11871421271474       -0.17293478596344        2.27108067044636
H            0.96893307078270        2.64369904952696        2.13168138364263
H            3.16649780616151        1.87747686105797        1.27017741247054
H            2.95554665407993        1.32512524196721        3.60296455071747
