48
 energy: -84.847078811455 gnorm: 0.000460110288 xtb: 6.7.1 (edcfbbe)
C            5.53131254680319       -1.20130781543863        0.06150814507961
O            4.87703228017508       -0.08620024382771        0.66027333627289
C            3.51091088333594       -0.22073672237684        0.80084324975595
O            2.90845777390038       -0.20593448596401       -0.47944682593793
C            1.50334807743013       -0.35197056328007       -0.45647998254773
C            1.01781351474778       -0.30928104040183       -1.91750254165506
O            0.90706651409316       -1.57854184298586       -2.50205195397204
C            0.80724424118711        0.74095920007877        0.38096149736687
O           -0.54438644673951        0.32905745817091        0.53961310353932
C           -1.55928464848861        1.24799316270190        0.24189600687126
O           -2.08750810875019        1.00392135323839       -1.03578928520520
C           -2.67747439416060       -0.28477806807960       -1.19599434410591
C           -3.23880897180518       -0.35040422147953       -2.61838044084406
O           -4.29376869679149        0.57387404015738       -2.74301350340936
C           -3.77868926092519       -0.54848445020724       -0.15699201222251
O           -4.27931857604188       -1.85856854075481       -0.24412677104437
C           -3.25462714766574       -0.26109050582476        1.25572661966892
O           -4.28058318528622       -0.35100663137218        2.21615113414499
C           -2.67402399660217        1.15336467896492        1.29732274296757
O           -2.15271340380530        1.48907146989417        2.54984740665308
C            1.46789693039318        0.88638577858936        1.76916337984429
O            0.95800505568793        1.96915167925818        2.49590420021704
C            2.99889183733033        0.96897506437236        1.63512782389552
O            3.63174198791005        1.06775951472411        2.87674503614893
H            5.21767124288484       -1.31708461097592       -0.97660629115514
H            5.31408423659627       -2.11592362989483        0.62049882130514
H            6.59158978567499       -0.97233005164374        0.11191217087633
H            3.25521432251236       -1.17937966975451        1.30356832679179
H            1.23347248964482       -1.32248694909834       -0.01051690681755
H            1.70594410640582        0.33317667303063       -2.47814905770040
H            0.01753135480646        0.12591294785420       -1.95064258781540
H            1.78959637321631       -1.95482245073579       -2.62858146962143
H            0.85767397655157        1.69854604699053       -0.15113458112362
H           -1.17365434726121        2.27250881851394        0.21036041165889
H           -1.89521637307810       -1.05204044214385       -1.08657341748970
H           -2.42651611155936       -0.11703668057453       -3.31606735580217
H           -3.59611154251880       -1.37243405670232       -2.79442836129847
H           -4.61441682918612        0.56288527329708       -3.65552877709200
H           -4.62716700915757        0.11145542747029       -0.36775587208619
H           -3.55281417464070       -2.49168561502374       -0.14085617234800
H           -2.44613030153846       -0.96979998967859        1.50038725678072
H           -4.84259460159012       -1.10967740059995        1.99499389589269
H           -3.46392533513373        1.86396171817700        1.00302657997388
H           -2.80267212460171        1.23480087153102        3.22438488296448
H            1.19313414901884        0.00147329794095        2.35613563185296
H            1.32644886274162        2.80047820112753        2.16360042104873
H            3.28128505454797        1.87914595016508        1.09336999693861
H            3.36511700738955        0.33720101822640        3.45428050588432
