48
 energy: -84.855889894611 gnorm: 0.000589557871 xtb: 6.7.1 (edcfbbe)
C            5.55238257345330       -0.88703081086040        0.12479256726234
O            4.79718317912745        0.14279232292870        0.75973768860626
C            3.44685893717067       -0.12892998024959        0.88212120838611
O            2.86079864434378       -0.17207980204982       -0.40060104197333
C            1.47964810323978       -0.46857434629377       -0.38841590994489
C            1.03409160491350       -0.56014120167895       -1.84927316565539
O            1.31187992213993       -1.85825044426340       -2.31578777304126
C            0.70792884978968        0.61128653591772        0.38943390211147
O           -0.64877266881216        0.23243125144739        0.54454683560393
C           -1.63545105846595        1.17076672222833        0.19242108074382
O           -2.16810360564271        0.90475013115461       -1.07463878792551
C           -2.85018636857477       -0.34421057606650       -1.19717129572639
C           -3.41859294608638       -0.36047157115753       -2.63583744266987
O           -4.71270001071282       -0.88032633875668       -2.75834337106925
C           -3.94445308334592       -0.51880093008830       -0.13401163529905
O           -4.40264772960357       -1.84700136158083       -0.21560637463128
C           -3.37994292284480       -0.22936805144226        1.26116520801406
O           -4.43951199412566       -0.31534971266067        2.18339460748772
C           -2.72902960877217        1.15873531184500        1.26737988449763
O           -2.24345558199641        1.47575071879345        2.54599331753845
C            1.30999627011874        0.77127464853076        1.79358418283198
O            0.64958745802666        1.83657794041394        2.43194947789398
C            2.81996140192780        1.00135713925516        1.71336163891142
O            3.31598279621028        1.02756090299548        3.02428426713561
H            5.17655230574761       -1.06871084626905       -0.88250307818454
H            5.49888703019850       -1.80907143720523        0.71023923306452
H            6.57256527756017       -0.51695108544428        0.09086750468029
H            3.28111584254353       -1.10237161883935        1.39191652653266
H            1.30638322134689       -1.44256812432410        0.09379204904024
H            1.59347899907253        0.19422863192246       -2.41255650019250
H           -0.03936298768473       -0.34344307686217       -1.91272281477207
H            1.23569202586751       -1.88045412460509       -3.28023265164588
H            0.78324065995062        1.56552439881001       -0.14477875852729
H           -1.20300089868775        2.17676407105865        0.11124481067851
H           -2.13414657698657       -1.16550605248094       -1.05054977725478
H           -3.47380776766949        0.67751346822940       -2.97375906001449
H           -2.72586720071144       -0.90467700301926       -3.28961460620178
H           -4.75932671057831       -1.73038976219225       -2.29122927169414
H           -4.76775898394866        0.18442990349657       -0.33094540079838
H           -5.01024070650013       -1.99949840699448        0.52417512412324
H           -2.60784910449338       -0.97834009079172        1.49904156157684
H           -4.15162648870314        0.09578637280257        3.01245608156632
H           -3.48888930287583        1.90574029156162        0.99733727440359
H           -1.26818336365249        1.49689111502241        2.54370727214364
H            1.13418842028534       -0.16151110588732        2.35195030508549
H            1.12748224831789        2.04079184535268        3.25232271301371
H            3.02396687559506        1.94921051796879        1.19386817326584
H            4.27918703529642        1.12889660576480        3.00017428996944
