48
 energy: -84.737676314987 gnorm: 0.000375524611 xtb: 6.7.1 (edcfbbe)
C            5.51211679814835       -1.16360678082173        0.09118224412460
O            4.87800172172538       -0.05014231190759        0.71753181864363
C            3.50676281904486       -0.16827901720288        0.83405345114133
O            2.92774961795753       -0.16672907601832       -0.45230868921376
C            1.53616634427360       -0.39829700939954       -0.43786205466378
C            1.07220991729497       -0.47521564764793       -1.89272305037334
O            1.40698363559236       -1.74638638907309       -2.39711200749058
C            0.79489988454053        0.70114294982633        0.34508048339992
O           -0.54324224648860        0.27116687333120        0.54167089639163
C           -1.56810800316618        1.16787769237676        0.20881639804405
O           -2.11466345981435        0.88073700276940       -1.04213699292690
C           -2.69229063316682       -0.43362298187201       -1.16890950766258
C           -3.01729268554592       -0.62349348209813       -2.63334224807438
O           -4.02893552724899        0.59291866638557       -2.94865072358586
C           -3.85608635114753       -0.56224858335680       -0.15140916126217
O           -4.39270834019179       -1.86961048231462       -0.22737808626574
C           -3.30947843311662       -0.28826871800937        1.25722490548497
O           -4.32222934557427       -0.30253587913537        2.24483867693692
C           -2.66676485168473        1.09941130267964        1.28760506923294
O           -2.11107164061143        1.39920344602787        2.53557507796380
C            1.44088089495234        0.98646210883756        1.70849834195835
O            0.94322027692680        2.22201467390211        2.15724428028052
C            2.97996353931316        1.02999434479184        1.63586195205924
O            3.53337684193230        1.12454539315930        2.91981743676650
H            5.12370921631699       -1.30511261651832       -0.91824088888627
H            5.34900075330976       -2.07175100128422        0.67897450123333
H            6.56823847216653       -0.91383148457745        0.06426752543237
H            3.23296093000793       -1.11959984972665        1.34549587931258
H            1.32608412171335       -1.36535962401662        0.04734516966671
H            1.58974613302757        0.31504826735667       -2.44961124558905
H           -0.00999367699735       -0.31307655382808       -1.93296933813906
H            1.09406817054680       -1.81374092238518       -3.31104995664001
H            0.81508981694806        1.63074773012480       -0.23693910536193
H           -1.18234832902369        2.19274318214433        0.15070549975786
H           -1.94890026136821       -1.19899293858486       -0.90246907640676
H           -4.08342058467627        0.59842533201262       -3.92604149230411
H           -3.69556013354801       -1.49639553120823       -2.68465052031708
H           -3.48611604256229        1.35788303275303       -2.66952230843602
H           -4.62018453395826        0.18971976241247       -0.38431526006090
H           -5.35397425268515       -1.83523797758386       -0.13850769583492
H           -2.53577918559750       -1.03456793373689        1.48644203783074
H           -4.64125384722922       -1.20926441691784        2.35362046703297
H           -3.43809087994542        1.84396853231322        1.02712703018759
H           -2.76975463786197        1.17538307334321        3.21344030794026
H            1.13133196378950        0.18137813851763        2.39482412603536
H            1.39718148150821        2.45887126672727        2.98152474371710
H            3.28925592674963        1.93972758161309        1.11058457871709
H            3.46474561228231        0.27598388007589        3.38231851905483
