48
 energy: -84.853558857836 gnorm: 0.000728624818 xtb: 6.7.1 (edcfbbe)
C            5.74309180920119       -0.80817369417720       -0.05718893135517
O            4.93171476543701        0.20294913436097        0.53337349314515
C            3.61311752577664       -0.15302705043996        0.73394955049000
O            2.96833285092847       -0.21147451982957       -0.52293609501334
C            1.58298911231166       -0.50572862748051       -0.47047660963078
C            1.10385577775279       -0.57265280049023       -1.92724617928747
O            1.58503294921910       -1.71126325626084       -2.58747627143179
C            0.83821029440314        0.56872753157086        0.33481791650756
O           -0.52334324844670        0.20351559591167        0.50844965919659
C           -1.49891603157865        1.16011193078400        0.18960524005060
O           -2.06182001719670        0.93281356601398       -1.06875901096308
C           -2.74175589442465       -0.31591030922946       -1.17170729490378
C           -3.20927105214120       -0.46517897762822       -2.61688944436185
O           -2.08767298816454       -0.76106608599479       -3.41435450826877
C           -3.90551478409490       -0.37432649323612       -0.17129684633728
O           -4.55434046263953       -1.61457258579247       -0.30820584082311
C           -3.32621027733034       -0.18707037398096        1.24511070055936
O           -4.32887057965008       -0.13528483426783        2.23534345263125
C           -2.57508394479182        1.14550327020853        1.28834317013202
O           -1.94351642812199        1.36054876842216        2.52173153478708
C            1.46454524087033        0.70223470815893        1.73406641228082
O            0.94101696593882        1.79824457883275        2.44188178804004
C            2.98139492714096        0.90416630408764        1.64773844506754
O            3.57350345926982        0.77717530093477        2.91127451785674
H            5.40856887012798       -1.02512051580657       -1.07255567226380
H            5.71460759460011       -1.71909979449941        0.54687220482984
H            6.74796701219935       -0.39641870819432       -0.07081723912769
H            3.53792403318091       -1.14296025172099        1.23104675707353
H            1.42572093292371       -1.48193825250145        0.01418473758420
H            1.42827386729401        0.34318266580171       -2.43560144865425
H            0.01583761643983       -0.63239996867013       -1.96533335576304
H            2.55152362649681       -1.66751764318487       -2.61192639741724
H            0.91702787789356        1.52763860380832       -0.19097635750281
H           -1.05583385337896        2.16233806302356        0.12756544885678
H           -2.04516646110260       -1.13482701638403       -0.94668076426207
H           -3.67502714521116        0.47750167271691       -2.92705080594098
H           -3.94119649938932       -1.28056107152118       -2.65176573281638
H           -2.35993064778416       -0.83310050714561       -4.34006580268698
H           -4.59264669026104        0.45599292888134       -0.38415460401892
H           -5.44657111576625       -1.55611285796788        0.06430110997252
H           -2.61293528579518       -0.99627715672351        1.44675800643121
H           -4.63736071876273       -1.02966405084638        2.43655162049166
H           -3.29018113343040        1.95518467032399        1.07831340952885
H           -2.60024316905508        1.21935249264834        3.22348930906589
H            1.26763364867337       -0.23337080648231        2.27987934171110
H           -0.01711981307057        1.67189522163648        2.57208872746528
H            3.19088259367074        1.89228423533048        1.21385434626730
H            3.16435089721912        1.42990894781710        3.50226042538528
