48
 energy: -84.852077342705 gnorm: 0.000993607593 xtb: 6.7.1 (edcfbbe)
C            5.69254647881876       -0.86245461811322        0.00967874344735
O            4.94340586754212        0.16604979890001        0.65328880942880
C            3.60079528279937       -0.11915239174491        0.79956019359205
O            2.99985886691643       -0.09198978256344       -0.47810084251097
C            1.61626192952095       -0.37604626941159       -0.48340718335403
C            1.18169839583527       -0.39423374888494       -1.95075556071633
O            1.52781781875987       -1.64123156566454       -2.50430249506049
C            0.85913824668453        0.68158031427119        0.33476819909568
O           -0.50492035156122        0.31202764786546        0.47623002865303
C           -1.47743291992392        1.27343018699264        0.16134799457694
O           -2.01502298040107        1.06374584939370       -1.11234152126436
C           -2.71032140074065       -0.17565373506260       -1.24966117479513
C           -3.19396434324643       -0.27434845477050       -2.70565816494184
O           -2.26607791768961       -0.90186096368303       -3.55198789511513
C           -3.87307604583969       -0.25771841855703       -0.24856529173957
O           -4.51054158654411       -1.49951320701485       -0.42088729220814
C           -3.30228376617743       -0.09946217032519        1.17412362351432
O           -4.30967408410319       -0.08251946459388        2.16111512786199
C           -2.56695952979325        1.24017429235013        1.24453899368171
O           -1.95068072845285        1.44670627166119        2.48684341004692
C            1.45587783564574        0.77717650928417        1.75098723486549
O            0.93699454957823        1.87227725483591        2.46393313593797
C            2.98078404897484        0.93946367909308        1.71943518152163
O            3.52292197006716        0.77232974448315        3.00035476478508
H            5.29761252049435       -1.05321842755250       -0.98955184011858
H            5.65920728759756       -1.78062925853353        0.60304943448091
H            6.70896561824923       -0.48482662693308       -0.04615848959121
H            3.45367531884709       -1.12121060049480        1.25541526832867
H            1.43350465486019       -1.36780257333850       -0.04238235867662
H            1.70600191614655        0.42409260589840       -2.45521243877723
H            0.09968778664940       -0.22830349058573       -2.01725956885920
H            1.48191911007206       -1.58538815549736       -3.46911524400640
H            0.94948194967177        1.65334804936662       -0.16440887066629
H           -1.03409153527695        2.27670082050471        0.12258321808928
H           -2.01974818575023       -1.00393171723064       -1.03502173898108
H           -3.32132528402884        0.74049854623051       -3.08707318781857
H           -4.15348747230886       -0.79955532912391       -2.72331753179516
H           -2.28182841205959       -1.85532545645759       -3.38694871848901
H           -4.56677353705446        0.57171627799416       -0.44486733857757
H           -5.38298392327130       -1.47563997812850        0.00000873533478
H           -2.57863085414402       -0.90301718043464        1.36173530525543
H           -4.59084037850338       -0.98646147388131        2.35918050857420
H           -3.28580618495148        2.04648957864375        1.03446067555600
H           -2.61350062017340        1.29185373393192        3.18012393096078
H            1.22119997496951       -0.16363209722950        2.27330437844186
H           -0.02544318248285        1.75986147369636        2.57533579473704
H            3.23382515627060        1.92830553221893        1.31157844339683
H            3.11120764733184        1.42622095447964        3.58829071910066
