48
 energy: -84.854267167139 gnorm: 0.000840872834 xtb: 6.7.1 (edcfbbe)
C            5.47782232822785       -1.07229569214685        0.08443775197607
O            4.78293671001814        0.00436998767412        0.70967324889948
C            3.41279043722629       -0.16592066118848        0.79444924196237
O            2.85759688782496       -0.08967542695384       -0.49903495216070
C            1.45361412244738       -0.26312488365761       -0.54443081272984
C            1.06463649317300       -0.08461727226551       -2.02293242915522
O            1.44739877141456        1.17746339429988       -2.50153696386512
C            0.72332788693260        0.76820268585403        0.33315521321587
O           -0.62928271737515        0.36219589300585        0.49498486554222
C           -1.64065788702449        1.29907974597146        0.23271026142471
O           -2.19567740797712        1.09263450195982       -1.03850341906423
C           -2.77056422715520       -0.20386430513313       -1.18845708427322
C           -3.25497214687336       -0.33965828119790       -2.62880068233922
O           -2.14290057831671       -0.61705619957518       -3.44788944534468
C           -3.89922626584934       -0.40834951125122       -0.16965615809503
O           -4.43470805021024       -1.69637170436604       -0.32468976392046
C           -3.33506873747329       -0.20783643612270        1.25107109102970
O           -4.32990290206298       -0.44264475824017        2.21660531601930
C           -2.72334170120466        1.19841306333443        1.32393782228477
O           -2.24488418284288        1.54318751763494        2.59199848416060
C            1.33796478284517        0.81209594120621        1.75153372261358
O            0.71385399177062        1.79009613269271        2.53869619633114
C            2.85885876636685        0.95825654719727        1.68642596852069
O            3.37598049276401        0.87958428922624        2.98536436040448
H            5.13800475588983       -1.20298923104440       -0.94333240707099
H            5.32218596913632       -1.99807112579076        0.64502061901448
H            6.52592559370363       -0.78928348249749        0.10428414742097
H            3.16112034459251       -1.14979129017782        1.24332505094216
H            1.17991993043830       -1.26914732695867       -0.19637405523499
H            1.53315210423023       -0.88239946209470       -2.60998264691464
H           -0.01835008787582       -0.14620527666839       -2.13796854168477
H            2.41239603164970        1.24396953434700       -2.44227156351573
H            0.77922125262747        1.75198346426688       -0.14617866243000
H           -1.23849766534320        2.31955128847954        0.20480519481104
H           -2.00248812807182       -0.96913938360599       -1.01141194449343
H           -3.73560435021572        0.60101346129291       -2.91877718819684
H           -3.97955697509196       -1.16179776772974       -2.66218356975205
H           -2.42159847055902       -0.61999423174979       -4.37461381457045
H           -4.68240047800652        0.34707773297782       -0.35452952992277
H           -4.88436430792712       -1.93277593190971        0.50387622824532
H           -2.55442518406468       -0.95568454961319        1.43213532730573
H           -4.81164446687679        0.37612444982996        2.40309798379301
H           -3.50465909769001        1.93256597930271        1.08385720546624
H           -1.32434346314368        1.25267756555479        2.70194580137584
H            1.10539780337666       -0.14068513311153        2.24313520546190
H            1.12311699672464        2.65585279567530        2.39375367962406
H            3.12528719888007        1.91708812878536        1.21447671312015
H            4.34432682292537        0.90969221151316        2.94383195750960
