48
 energy: -84.853029343394 gnorm: 0.000900244852 xtb: 6.7.1 (edcfbbe)
C            5.57884690797484       -1.08320525842050        0.09882286327743
O            4.87435325612561       -0.01583157367671        0.72923562651019
C            3.50365827500310       -0.18904220827252        0.79378117292878
O            2.96784086146249       -0.09576052908053       -0.50679112335962
C            1.56726852770968       -0.28324165577871       -0.56786181297334
C            1.18526824722998       -0.08642415997507       -2.04546696776760
O            1.58246478192949        1.17406842269766       -2.51391851294220
C            0.82304030161781        0.72816441590602        0.31533543934654
O           -0.52882123999835        0.30957864977873        0.45821278735064
C           -1.53290879524771        1.25451586712151        0.20190382734416
O           -2.08319274400183        1.08460729382919       -1.07342454590539
C           -2.71448536299855       -0.18153023329331       -1.25461080659057
C           -3.22566319644553       -0.24983403511591       -2.70261902589397
O           -2.29142323031124       -0.80741440700357       -3.59071407219103
C           -3.84653991113258       -0.37110823445278       -0.23601838727436
O           -4.40569164702898       -1.64236409549352       -0.43351020277583
C           -3.28421961198797       -0.22434166636729        1.18585967288316
O           -4.36208387181727       -0.36848991848924        2.08350441732570
C           -2.60919466168577        1.15084427487488        1.29655586200503
O           -1.97877277744920        1.35536317332462        2.53836909801116
C            1.41446473646373        0.81479350507308        1.73905938737351
O            0.90903629589643        1.93967632696779        2.41127740390559
C            2.94054966277488        0.90636982452076        1.71531559633095
O            3.41278839458983        0.72788275070224        3.02279172800360
H            5.25273593259630       -1.20151943225392       -0.93503445576888
H            5.41803089745249       -2.01615014492566        0.64630465220880
H            6.62603093660139       -0.79834084234672        0.13555738858148
H            3.24879866818813       -1.18295000562500        1.22023355130330
H            1.30436970377591       -1.29798882168519       -0.23456139083380
H            1.64576616767509       -0.88353856595664       -2.64053647043369
H            0.10108068936719       -0.12692392204143       -2.15960156360462
H            2.54311166269007        1.24653787944909       -2.40891296679893
H            0.87772748593803        1.71631227562179       -0.15641003679462
H           -1.11712687731729        2.27040843549328        0.19747763613068
H           -1.97657484078586       -0.97984666166372       -1.08910962957861
H           -3.40310221071034        0.77188045309137       -3.04389924154894
H           -4.16341990483965       -0.81303308280924       -2.71624736474395
H           -2.27456947771455       -1.76822323965019       -3.47446186452102
H           -4.60680626352626        0.41105015680935       -0.39008349276908
H           -5.04204386504378       -1.80675105755386        0.28062932420512
H           -2.52550322839209       -1.00015739739370        1.35064399535701
H           -4.02798680559318       -0.55463488795532        2.97258029636707
H           -3.35728326363309        1.92847378648598        1.09812806503594
H           -2.63363755169629        1.64854816759066        3.18987709701852
H            1.14198230323840       -0.10462533379644        2.27814636255349
H           -0.03911624455382        1.79692328113092        2.58680956072932
H            3.23365992833042        1.88698533364484        1.31758839950615
H            4.37373895692927        0.85574207461936        3.03018076533850
