48
 energy: -84.733546897197 gnorm: 0.000540404479 xtb: 6.7.1 (edcfbbe)
C            5.52055356678950       -1.35395519377233        0.28334722579055
O            4.91679182741856       -0.22892884735954        0.91850807928711
C            3.53272647615367       -0.24811475008332        0.90863049298883
O            3.07770055708994       -0.17169217592635       -0.41616661027500
C            1.67869286862194       -0.33397168343546       -0.57648627038875
C            1.50270859697424       -0.25585022170787       -2.08746516387576
O            0.02145198032163       -0.54472138054662       -2.38445818944823
C            0.89664857077362        0.72034024906946        0.27150935205764
O           -0.44367390106126        0.25144532300457        0.45824062868305
C           -1.48650420327673        1.13201476291365        0.16723156311129
O           -2.03114328072839        0.84693462612200       -1.10229450601629
C           -2.75198926092618       -0.39476145902409       -1.20062188000262
C           -3.31706038780193       -0.47223944002289       -2.63026172445929
O           -2.40541475839795       -1.00433159478919       -3.55567987914127
C           -3.88154277734457       -0.47692123081638       -0.15743880988679
O           -4.60720575274430       -1.66951038207083       -0.27381070438857
C           -3.26757159657109       -0.28093316383938        1.23316874477293
O           -4.19628641731193       -0.39641590137931        2.28025385407437
C           -2.57393458165213        1.08835280943715        1.25480183206280
O           -2.00016621160253        1.36678154646352        2.49894496331020
C            1.49045851657180        0.95996221766966        1.67926953238057
O            0.95970036823803        2.12658355107607        2.26355158379259
C            3.02367228385532        0.97981592473362        1.68147012602948
O            3.54711458141893        1.09090471748385        2.97404403495223
H            5.21058274761665       -1.40924141745073       -0.76112182975435
H            5.24039486733608       -2.27508767052419        0.80315100440709
H            6.59026000570385       -1.18486897728596        0.35954250377963
H            3.14910729018315       -1.18479406480621        1.37573434608097
H            1.37677229590931       -1.32686426279017       -0.19765382692267
H            1.65346776878510        0.81176441367986       -2.35999025294161
H           -0.61211186454721        0.16890051940394       -2.11830308029725
H           -0.04438275183790       -0.66394223595892       -3.35417183528656
H            0.89027271649282        1.67762454229912       -0.26755436088361
H           -1.11337731950493        2.16195127767152        0.09385682345651
H           -2.05295677665251       -1.22405822344978       -1.02081998451981
H           -3.53853601266382        0.54570255895774       -2.95826066318966
H           -4.24532754548767       -1.04939954911495       -2.60294325062337
H           -2.41327249627793       -1.96972065215151       -3.49940375814512
H           -4.60445112547096        0.32480902237491       -0.35396983112728
H           -4.09103985956250       -2.41149297727828        0.07425962458392
H           -2.50914622432884       -1.04939633749278        1.42630913413685
H           -5.00734631661028        0.08635394035392        2.06225695551159
H           -3.31221531278855        1.86976991408175        0.99902700556856
H           -2.56050738024678        0.96546515819252        3.18484900075052
H            1.13851939106101        0.13497755273952        2.31289493099041
H            1.51511421666024        2.88760658800672        2.04095827931246
H            3.39164608006747        1.86068497859218        1.14183104949288
H            3.27957253578856        0.33187558919276        3.51274474242790
