48
 energy: -84.739381589817 gnorm: 0.000334356050 xtb: 6.7.1 (edcfbbe)
C            5.59357285837025       -1.09077338243080        0.24000470826428
O            4.90651359034347       -0.01483454322158        0.87628958909317
C            3.52997306689116       -0.15139965007820        0.89293558767432
O            3.04471192984104       -0.15640684671188       -0.42338402873543
C            1.65803855067703       -0.42362124847016       -0.56507165579166
C            1.49371925533624       -0.40220752423209       -2.08322681585221
O            0.02424698453222       -0.59658190158283       -2.47204148497978
C            0.83092413817004        0.61031441305446        0.25838311683221
O           -0.50181652842239        0.13318717240796        0.46638250302459
C           -1.55048060711016        1.00636847565030        0.15774477954288
O           -2.09874153833029        0.67889308164433       -1.09701955430691
C           -2.86900774574013       -0.52944371688407       -1.11883855774711
C           -3.40978381196912       -0.71885311647578       -2.54642952060025
O           -3.71473652040291       -2.05988571091724       -2.81111653979404
C           -4.00042932594316       -0.48458612329164       -0.08808290746558
O           -4.71349848689937       -1.69013399696144       -0.17098616138805
C           -3.39498747744502       -0.27583844258245        1.30307244503222
O           -4.44982518081181       -0.22567202788429        2.23045259182649
C           -2.58465970669918        1.02413189857128        1.29374027543696
O           -1.98345741008493        1.18468897308351        2.55249809984755
C            1.40596656381722        0.85280942833364        1.66159999310379
O            0.75427081441817        1.98075738301243        2.21138764682480
C            2.92587591500577        1.03845292416136        1.64962375235380
O            3.41130338522789        1.21030701888947        2.95371904270276
H            5.28318982520296       -1.17424752257653       -0.80215773193122
H            5.38980863541457       -2.02962852902308        0.76351106015104
H            6.64696317854458       -0.83778744080624        0.30906490809564
H            3.23759835456589       -1.10576116405982        1.39289139148861
H            1.43195370815734       -1.41941434498973       -0.14003043124837
H            1.68692151531509        0.64149656720477       -2.39785786157755
H           -0.64127413381257       -0.07206811920869       -1.95689758393232
H           -0.15599974602770       -1.55331052901290       -2.40296896917676
H            0.81832646699006        1.56768632330082       -0.27825800383082
H           -1.16412457461194        2.02832564590243        0.02795524582925
H           -2.23083251607461       -1.38670685378724       -0.86083497086366
H           -4.28580078768212       -0.07445651493494       -2.68818377653827
H           -2.64499707040596       -0.42561740622116       -3.26849943427109
H           -4.35653053722403       -2.36671129462361       -2.15055029892460
H           -4.66371363624334        0.36838485877259       -0.30453335703094
H           -5.31761886164722       -1.74023715417999        0.58550088059927
H           -2.71581940832523       -1.10917025459380        1.54126925986423
H           -4.09743672363216        0.06293552330300        3.08472939314283
H           -3.27602634476303        1.86168065447240        1.10220579811295
H           -1.09326226854912        1.57418337723814        2.46395852314085
H            1.16483400250122       -0.03459707137142        2.27097667789020
H            1.29012570574207        2.30378736390041        2.95487175469420
H            3.18827623428746        1.94955290690221        1.10073433421161
H            3.54564326949972        0.35451441262673        3.38577234226086
