48
 energy: -84.856828840900 gnorm: 0.000333343189 xtb: 6.7.1 (edcfbbe)
C            5.67073392817951       -0.72145914107067       -0.04164518212252
O            4.88952786812752        0.23442766479674        0.67150228006878
C            3.55196170140111       -0.09344968801182        0.79652861609370
O            2.94658546637061       -0.10342625845609       -0.47807797008502
C            1.57131632106560       -0.43056826900529       -0.45124427912340
C            1.07167998931842       -0.45796461487940       -1.91499988960283
O            0.70737584338958        0.80192786438039       -2.41414717427097
C            0.79824061600091        0.59166707350352        0.39524306714865
O           -0.55694714600506        0.19170825252085        0.51536267532104
C           -1.53333082870338        1.15545576162937        0.21593831583541
O           -2.03605154036158        0.95721315423836       -1.07982361543622
C           -2.70265502805952       -0.29343970494942       -1.25895526720247
C           -3.17180407031311       -0.36403543596898       -2.72018872451669
O           -2.18825744732263       -0.87264248508659       -3.58505778530213
C           -3.87181485171939       -0.44062226942914       -0.27762128143929
O           -4.44596831169808       -1.70606595425080       -0.47350924833074
C           -3.35192599453933       -0.27167528671560        1.15489697457520
O           -4.44643598470596       -0.36512805655624        2.03386253776846
C           -2.64788910147314        1.08753557152232        1.26745866843680
O           -2.17421186256837        1.29267741844536        2.57329569605678
C            1.40465987881046        0.67778719171229        1.80105725377145
O            0.71954088324279        1.67901830202117        2.51290139235385
C            2.90324767795612        0.96500398632079        1.70298257712006
O            3.43123215964504        0.93538568926727        3.00136405852187
H            5.31355650350840       -0.81569362886769       -1.06749255079153
H            5.62520105657959       -1.69319119394189        0.45797327284497
H            6.68482393869624       -0.33362577344248       -0.02616193511887
H            3.43265929472992       -1.09809161139209        1.25941020447534
H            1.44165467379073       -1.42869966811489       -0.00499207082670
H            1.90268316549288       -0.80966042597174       -2.53092112099000
H            0.23991853535701       -1.16099039947891       -1.99307802289474
H           -0.23143476613893        0.96696628824236       -2.22766950072573
H            0.87600821653958        1.57309031669512       -0.08613751678231
H           -1.09932803174466        2.16351601906547        0.20586686487758
H           -1.99636483210982       -1.11148713451362       -1.05812165239081
H           -3.38527202097004        0.65306112872846       -3.05521631242678
H           -4.08523122118126       -0.96312414313597       -2.76120561361720
H           -2.18339802473864       -1.83834912009915       -3.53336672511160
H           -4.61322377230828        0.35083453422569       -0.47171966959569
H           -5.07894311940718       -1.86267340670199        0.24438687395775
H           -2.62102880385283       -1.06639336912312        1.37266564355944
H           -4.16839580712511       -0.03172776401253        2.90026093896102
H           -3.38003373490876        1.87674146814213        1.04250048160195
H           -1.19946167712126        1.31355344401373        2.58395948161875
H            1.26891165502385       -0.29235800383946        2.30434681350988
H            1.20901021491460        1.85784779112585        3.33231414758779
H            3.06046883155670        1.94662678669668        1.23257388294067
H            4.38882058240566        1.07766803732967        2.96072253852667
