48
 energy: -84.638800920280 gnorm: 0.000450472536 xtb: 6.7.1 (edcfbbe)
C            5.49599044428945       -1.16374268004205        0.26511879067246
O            4.80946294655279       -0.11224508852560        0.94175133315126
C            3.42781829906702       -0.23007702331598        0.92967109986811
O            2.96390282627744       -0.16151352325899       -0.38910567894744
C            1.56446726182081       -0.33903880627655       -0.56354581671920
C            1.45074680444323       -0.19222745372852       -2.08474059519170
O            0.01345385140802       -0.10989936197686       -2.59032797368466
C            0.77539517079078        0.67622876980784        0.31972977597964
O           -0.56438311964199        0.21851136073150        0.49092847087890
C           -1.58573932551357        1.13397013384094        0.21945946950473
O           -2.10244927165036        0.86872897001433       -1.05554381535754
C           -2.74238307926525       -0.41950629968359       -1.14217304915825
C           -2.95450846836654       -0.64345836766199       -2.63868134752542
O           -3.81557695895114       -1.90963626417948       -2.80255735666117
C           -3.97461975208294       -0.39796168679680       -0.20745255618845
O           -4.66928289880645       -1.62093042860794       -0.32552561386978
C           -3.48595335840148       -0.19002724796989        1.22847416685482
O           -4.61202436158121       -0.14738751179470        2.07384648956268
C           -2.66648185568808        1.10184634002807        1.30989508034325
O           -2.12109401508148        1.21956040172291        2.60082753788359
C            1.34374677862975        0.80372218336330        1.74146051173756
O            0.70793487168742        1.89891634405224        2.36846241437700
C            2.86047773373182        0.94319549504210        1.73984844469544
O            3.29778688622314        0.94563685348024        3.07293586948665
H            5.19400164544716       -1.19818857190928       -0.78198154216717
H            5.27973931942393       -2.12188877999640        0.74578929620819
H            6.55042349246639       -0.92094417527647        0.35452221485533
H            3.11249374413532       -1.19329500859721        1.39083491219942
H            1.27595225527568       -1.34634061087252       -0.21242531654399
H            1.82503335351445        0.82995418670400       -2.29771347279070
H           -0.68932236379566        0.35622999441529       -2.06827786149689
H           -0.31516760202180       -0.99949671080627       -2.82634171068526
H            0.79279538027891        1.66587175687013       -0.15340682236794
H           -1.18298270641494        2.15587288049247        0.16187208087300
H           -2.05738063565384       -1.17886048879044       -0.72807358011839
H           -3.64373417173182        0.15229857989444       -2.98108370725645
H           -4.39676394967269       -2.02589614881699       -2.00737253551742
H           -3.20857943243803       -2.67182482505090       -2.87611722121799
H           -4.63117366896592        0.44269462623946       -0.48188497468573
H           -5.34314136481095       -1.66429497746616        0.36869622992983
H           -2.83132058288415       -1.02974011721408        1.51224804290049
H           -4.32393240061536        0.11665343652610        2.95893696515619
H           -3.34552778120363        1.95023470059152        1.11921573029088
H           -1.19900003279804        1.53258457502456        2.55366734779342
H            1.09172583057475       -0.12087863253764        2.28588004364858
H            1.18645758193162        2.08446011991139        3.19276355749986
H            3.15365117859663        1.87063360171939        1.22487049850409
H            4.26634948735990        0.91586843757779        3.08657821972041
