48
 energy: -84.850054264777 gnorm: 0.000789336254 xtb: 6.7.1 (edcfbbe)
C            5.47076197455401       -1.20512264042563        0.05691589305686
O            4.82336163922877       -0.07351162394805        0.63297289833592
C            3.45607415918940       -0.20103495280641        0.77133385640997
O            2.86509504848298       -0.16979635048775       -0.51258754534185
C            1.46077699909447       -0.32385940219284       -0.51318953661690
C            1.03036082513354       -0.21795050202965       -1.98596802208857
O            1.41521215765061        1.00497373649927       -2.55267621078383
C            0.74903693248153        0.74650516708065        0.33745568238440
O           -0.59973432058088        0.32276701894150        0.51216767757676
C           -1.61698959401445        1.24155722123034        0.23178466863510
O           -2.17117185813644        1.01267646795130       -1.04130842818610
C           -2.76338393771544       -0.27318797238141       -1.19054798880388
C           -3.26615536247948       -0.36647739291712       -2.64022837631523
O           -3.62195219687898       -1.67219176311930       -3.00261248755316
C           -3.90732369827645       -0.47291519933028       -0.17464597446025
O           -4.52985619003875       -1.72414128666762       -0.32363417450319
C           -3.35433149247043       -0.25151002675511        1.23843566435659
O           -4.31474128717572       -0.42627345559345        2.24859989852528
C           -2.72238280960932        1.14777243078349        1.30171971220439
O           -2.18942646508938        1.43044573498488        2.56236497117233
C            1.40782422095099        0.89911082465651        1.72601302986724
O            0.88859475554359        1.98331780695418        2.44529155492104
C            2.94003311850716        0.98302452132711        1.61004998219039
O            3.55873292302967        1.06892512982499        2.86007388143571
H            5.09420110789938       -1.39308373976880       -0.94956852655534
H            5.31612905619349       -2.08976799761450        0.68120392183656
H            6.52483577930807       -0.94684158326226        0.02465843715116
H            3.19220747856430       -1.16254582560949        1.26287785538495
H            1.18821915808123       -1.31170290062915       -0.11212092104953
H            1.46125969742984       -1.05858192648032       -2.54172358682652
H           -0.05693181668755       -0.25784778849795       -2.05098044057541
H            2.38168864891094        1.06800265791287       -2.51084006738756
H            0.78172015473079        1.70229179514983       -0.19941193085385
H           -1.22915348957953        2.26518201246233        0.19860685433186
H           -2.00414820588116       -1.05235091101167       -1.02289095675683
H           -4.10629742415105        0.32738411094397       -2.76974381293142
H           -2.45898908738684       -0.05960429263965       -3.30911058218978
H           -4.32107108199398       -1.97644810200305       -2.39864738417566
H           -4.68800051332158        0.27100593146918       -0.38039016287304
H           -3.99292178801574       -2.41195359222795        0.09590335539487
H           -2.56781071701994       -0.98532430194913        1.45157402482617
H           -5.12543833513271        0.05593764501809        2.02808220774105
H           -3.48407361100551        1.90182159185199        1.03567590585073
H           -2.74430703487147        0.99634972268167        3.23228611058477
H            1.13121453043201        0.01507641821906        2.31406258329260
H            1.25632913426071        2.81395162248429        2.11079655885609
H            3.22971062945705        1.89867429758696        1.08216700962611
H            3.28804018762776        0.33072666341854        3.42585092793324
