48
 energy: -84.739146756017 gnorm: 0.000796535537 xtb: 6.7.1 (edcfbbe)
C            5.52337354660434       -1.14885143478058        0.06231158081142
O            4.87079372897379       -0.03792667798907        0.67388445770869
C            3.49883948038614       -0.17626631003734        0.79369741438868
O            2.91648476559378       -0.18366453833213       -0.48779057100874
C            1.52274203369510       -0.39912915146121       -0.45440825155346
C            1.05114592505644       -0.50138553851794       -1.90696887715170
O            1.31821067261780       -1.80509993598494       -2.36707303447238
C            0.80191141513763        0.72701764276679        0.31336217560801
O           -0.54501950619199        0.32159068134502        0.50876977846307
C           -1.56111188080936        1.22063380956841        0.15830432464943
O           -2.10341306483797        0.90718519826591       -1.09178511270408
C           -2.67295333039844       -0.41362394110473       -1.18952575163694
C           -3.02630825011140       -0.62685535219321       -2.64733422899269
O           -4.00883141230331        0.60282243961381       -2.97413041421092
C           -3.82246518807781       -0.55138841031866       -0.15265207500956
O           -4.42771876305188       -1.82082364293802       -0.20249970791617
C           -3.28085336254842       -0.22411032384379        1.24341005894103
O           -4.24165068965088       -0.34265103783804        2.26875643472051
C           -2.67732251529545        1.18710316156406        1.22059290068529
O           -2.17294625007165        1.57341878859165        2.46658887177817
C            1.45331792179113        0.99263003722027        1.69128398990406
O            0.94435715889740        2.15896471659276        2.27824738017895
C            2.98471650694431        1.02851659208277        1.59721883496824
O            3.50581329255150        1.03416402461636        2.89786768029731
H            5.13574578605490       -1.31067713274173       -0.94405369006258
H            5.37522189342220       -2.05038703894360        0.66331012911322
H            6.57541308297945       -0.88233392446294        0.02943178375816
H            3.23778850478869       -1.11824129657327        1.32153360902468
H            1.30566497581262       -1.35144747421198        0.05416826498204
H            1.60991161920134        0.24077675082027       -2.48948273671502
H           -0.02064707467214       -0.28442262578435       -1.95762461539264
H            1.02738418591635       -1.87997464238215       -3.28768676555483
H            0.83839076263716        1.64638570847793       -0.28493870654135
H           -1.17200286178318        2.24194783400160        0.07164838478348
H           -1.90768882954721       -1.16099839287333       -0.92792467892050
H           -4.07919884657311        0.58819526056017       -3.95024440843801
H           -3.73146534349431       -1.48109170410136       -2.66838578715419
H           -3.44808935148460        1.36229142549662       -2.71594091348647
H           -4.62523845535598        0.15248807232267       -0.40711568410910
H           -3.77631074410316       -2.50043075187281        0.01933937262694
H           -2.48066477836856       -0.92759839103333        1.50517124768400
H           -5.09520566762233       -0.00461146667875        1.96054734072049
H           -3.45229087179308        1.90514303278581        0.89672384849028
H           -2.70899776829869        1.14479166326497        3.15479349558654
H            1.16099724792195        0.18124135658056        2.36677549388999
H            1.38110740454375        2.93891091412872        1.90374131551407
H            3.29500226811590        1.93145324336095        1.04643280766694
H            4.47476363019744        1.03219180268411        2.85062005275758
