48
 energy: -84.747435879500 gnorm: 0.000802358436 xtb: 6.7.1 (edcfbbe)
C            5.55790239769772       -0.88329416489799        0.00755740346145
O            4.81713055239677        0.17451592900683        0.61225966457300
C            3.46570242956222       -0.07698935145865        0.76012796396968
O            2.85899732057314       -0.11407630848478       -0.51265009820909
C            1.46590980448513       -0.36339211305561       -0.49239845785211
C            1.00128795083370       -0.29864468256783       -1.95816893205028
O            1.29229902811415        0.94538047541800       -2.53493416066687
C            0.71722405980268        0.68182713079180        0.35076513247064
O           -0.61939619762376        0.25347415673005        0.55113144669375
C           -1.64587901831397        1.17271008783666        0.26284746337895
O           -2.21469927257313        0.92018399217539       -0.98153620683113
C           -2.81151236189719       -0.38551616300377       -1.10008764415581
C           -3.19142865875894       -0.56844811529690       -2.55642716930336
O           -4.09226250357766        0.72150053743433       -2.86937678874130
C           -3.94301736102960       -0.53460098552046       -0.04352514926009
O           -4.56405079219235       -1.79337391082851       -0.13989882955208
C           -3.36839008910113       -0.27462968022997        1.35553481526618
O           -4.39429777021562       -0.34905784624983        2.31756405368405
C           -2.69906226466488        1.10747913442440        1.37578215847211
O           -2.16191448976214        1.37973672707947        2.64698869008672
C            1.36591182852899        0.82579098797508        1.73465391698083
O            0.72168456827473        1.87626225855241        2.41332181488316
C            2.87074223197199        1.05977993556429        1.60522949462214
O            3.41094740631195        1.08810430341105        2.89903274082628
H            5.18821411638400       -1.08493287430000       -0.99810382546639
H            5.48705159119450       -1.78941195553842        0.61551745425790
H            6.58436864010950       -0.53122245037578       -0.02921643832458
H            3.29479250585261       -1.04720861921993        1.27387026051364
H            1.26123576718262       -1.35884614933429       -0.07230731879213
H            1.47952319943755       -1.11096971323200       -2.51637465317372
H           -0.08221608320427       -0.41747997626296       -2.00438925587516
H            2.25344168742686        1.06377918736968       -2.53744047152329
H            0.74187893956185        1.64627181679855       -0.16890586431733
H           -1.24079500483414        2.19219608837661        0.19889992668391
H           -2.05351125058424       -1.15124404081200       -0.86811826211048
H           -4.13864233085636        0.73974280555304       -3.84759378120969
H           -3.94987276331772       -1.37621780694173       -2.57366235215391
H           -3.49488509004025        1.44054863959644       -2.57567647108048
H           -4.74202845506390        0.18898527906177       -0.23990869014084
H           -3.93444279671715       -2.48328479240206        0.11264234678846
H           -2.59632186516857       -1.03384439907428        1.57331651200028
H           -4.06625523890601        0.06205026912847        3.13294203939945
H           -3.46904757546599        1.86451561239240        1.16729284235186
H           -1.18932567109214        1.42448810956287        2.59839123165663
H            1.21291705788827       -0.11687357542365        2.28478192677863
H            1.23332182023053        2.07837883459244        3.21353644558339
H            3.05699540460600        2.00678989712659        1.07839277521931
H            4.37214060041894        1.19810646185343        2.84262438159111
