48
 energy: -84.745325541823 gnorm: 0.000737637244 xtb: 6.7.1 (edcfbbe)
C            5.68282378065823       -0.81787866140973       -0.04615152969894
O            4.89522777645355        0.15639603651969        0.63468699146090
C            3.56897456904426       -0.19511551248451        0.79280130751820
O            2.95054617204696       -0.17009182192339       -0.47550840297974
C            1.57229859803705       -0.47929769895168       -0.46555470500904
C            1.11886756067984       -0.54437353225848       -1.92648095450782
O            1.38018855788621       -1.83668654993340       -2.41776140464424
C            0.81316595067173        0.59612495887977        0.32990998706933
O           -0.55746167476689        0.25055688977975        0.45791876744686
C           -1.52014300480877        1.21966120827290        0.11236525268506
O           -2.03793698443648        0.98965422117178       -1.16228826786517
C           -2.71464971069279       -0.26376607861018       -1.31238323775465
C           -3.11463376547931       -0.32506721243563       -2.78665137421259
O           -3.93873159609929       -1.62553465543862       -2.97155946018424
C           -3.87256367292179       -0.35077366693246       -0.28211651575538
O           -4.48656821200058       -1.61826781232855       -0.39855803624464
C           -3.33697650172881       -0.13747203900331        1.13405215049883
O           -4.42040843719985       -0.19341681037815        2.03535459808900
C           -2.62576176187098        1.21813688770481        1.18023069804272
O           -2.14797281250634        1.51809117382346        2.46420931529361
C            1.39983377082689        0.65427211133889        1.75351292601338
O            0.77833921862040        1.64100948801438        2.54037356541901
C            2.92579733566861        0.81936826426590        1.74966411279633
O            3.45584925007283        0.58761467452977        3.02653296317253
H            5.27925037487271       -1.00505647093527       -1.04238686148907
H            5.70704211432989       -1.74964360581660        0.52571390318223
H            6.67773876430358       -0.38794607982705       -0.11103953549830
H            3.47333198239758       -1.20987901116527        1.23263599192920
H            1.40480279037986       -1.46000257674133        0.00311893966560
H            1.68725521352535        0.21173223253252       -2.47988239168237
H            0.04932396889456       -0.31082358767613       -1.98726742615559
H            1.20362187836272       -1.85318523170550       -3.36978808067225
H            0.92465313681811        1.56066206728711       -0.17892033223974
H           -1.06625657277631        2.21806936802423        0.05320345243363
H           -2.01114266152577       -1.07810019490789       -1.06561234732855
H           -3.88866533962868        0.45826634784610       -2.93070607796680
H           -4.38878497339082       -1.86224124395405       -2.11817506670350
H           -3.30072319944280       -2.32830860328536       -3.20406889011965
H           -4.60601104688428        0.44418193001649       -0.49589074360188
H           -5.11171609599446       -1.72533351380001        0.33424677231862
H           -2.60888478181171       -0.93045331067786        1.36968804205903
H           -4.14307386832226        0.21200373367929        2.87044200942865
H           -3.35077099837259        2.00116577598074        0.92237129009909
H           -1.22510685421594        1.22052969143976        2.56070274024479
H            1.15864747851473       -0.29453484669475        2.24772381658514
H            0.99953627712574        2.52439089964900        2.20787781021724
H            3.20017218251690        1.82291558171750        1.38872636648160
H            2.98783783060540        1.14368678466387        3.67080292911105
