48
 energy: -84.745567598449 gnorm: 0.000576434633 xtb: 6.7.1 (edcfbbe)
C            5.61600548196873       -0.85133444667961        0.01764282614202
O            4.86532511589440        0.20778135567586        0.60968431819771
C            3.52971243674302       -0.07867196842697        0.80303220196622
O            2.90977899522061       -0.25952566864916       -0.45291711157159
C            1.53726388930807       -0.58267372325093       -0.38980063731639
C            1.06363293974791       -0.79466314999519       -1.83513544444589
O            1.61716287463365       -1.92844655523883       -2.44121216550591
C            0.74642111477714        0.54388396440515        0.30125602116802
O           -0.59834360591016        0.14458426064405        0.49593172026426
C           -1.61824321684286        1.02541663623144        0.06981666164347
O           -2.13487777044576        0.63271084177878       -1.15606056334998
C           -2.76170503855931       -0.70007148913160       -1.13150504156456
C           -3.26656329056608       -1.11953015973292       -2.47481805491709
O           -4.19727432219957        0.02554634298727       -2.95153901401530
C           -3.88417204510499       -0.73385565993881       -0.08355878745619
O           -4.43491050297456       -2.02475275918580       -0.03173703030786
C           -3.32908932138399       -0.33756783940220        1.29214609387232
O           -4.28402020419651       -0.40029316962053        2.31766297982093
C           -2.71363951671435        1.07118444304570        1.15075060129083
O           -2.23505834658729        1.59904198079702        2.35621504110999
C            1.37161283312290        0.82451337298538        1.67679742566906
O            0.70194010964724        1.91134779821045        2.26316011841947
C            2.87812373562821        1.09746691392797        1.54580121206746
O            3.44536931726931        1.35625326884510        2.79857607497017
H            5.21845536000552       -1.09536019370044       -0.96843189321944
H            5.58908146551485       -1.73782087165165        0.65782061661338
H            6.63020820374251       -0.47286007189540       -0.06242552835308
H            3.40639253667628       -1.01313545142926        1.39837524984445
H            1.39482379754751       -1.50677315528185        0.19428730956371
H            1.40225539435608        0.05522107253658       -2.43121677755603
H           -0.03099742805618       -0.83114573098929       -1.84167623293921
H            1.29617444835065       -2.73133175322668       -2.00599499094333
H            0.79565934248704        1.45263902123613       -0.30915761798168
H           -1.21038523834783        2.03573638620561       -0.07722796543934
H           -2.00139967658778       -1.42692849744938       -0.81433557269496
H           -2.41192055086452       -1.09488613209084       -3.17505974498258
H           -3.70003427702438        0.85957285727678       -3.07757312761087
H           -4.58513810234454       -0.27927783480503       -3.79717168403757
H           -4.66910234206260       -0.00872798269749       -0.36316618751886
H           -4.45296437543652       -2.35307249173588       -0.95255559735877
H           -2.54974374363281       -1.04782420617138        1.58684101731115
H           -5.04408451195587        0.15484426415489        2.09078618845917
H           -3.49751085441275        1.76168409842707        0.81047979813710
H           -1.30560645459943        1.34503673492820        2.47935072716879
H            1.22320616435195       -0.07564156654252        2.29894269099143
H            1.26806619421302        2.28677785876359        2.95824016142895
H            3.04020449237224        2.00215908917970        0.95050484308930
H            3.56268851316307        0.53550698511170        3.30017397977190
