48
 energy: -84.852775364850 gnorm: 0.000224000622 xtb: 6.7.1 (edcfbbe)
C            5.63390363719173       -0.82949917547944       -0.07704521024293
O            4.87462810718428        0.18245831527792        0.58134519268395
C            3.53669560917779       -0.12503967262204        0.74848934531946
O            2.90986245467737       -0.15864115621189       -0.51437711634085
C            1.53743991269306       -0.48902043648013       -0.45492339858518
C            1.04213741048785       -0.60080710828681       -1.89790409018919
O            1.34289234713227       -1.89113033329775       -2.37060791459502
C            0.78808047799032        0.58563017961698        0.34559037034475
O           -0.57222425487454        0.22659277758651        0.53339711186124
C           -1.55195241936517        1.17895642265408        0.21273300272995
O           -2.12488878609244        0.92968539084681       -1.04018833587835
C           -2.80509440401602       -0.32297857397084       -1.13908777392837
C           -3.45268882028636       -0.35585094713208       -2.53005563955490
O           -4.33605704569420        0.71578422794626       -2.72894978391122
C           -3.86313727348624       -0.50480610175892       -0.04372295785531
O           -4.32459412437160       -1.82790889138011       -0.13183286961678
C           -3.26576695626578       -0.21757016938084        1.34058635404083
O           -4.30957977615043       -0.30472490941164        2.27887556573074
C           -2.62791809294903        1.17510373072465        1.31707296192328
O           -2.06511794879394        1.46802501818271        2.57585257058614
C            1.41254906366882        0.73681366106850        1.74963996096292
O            0.82741364956030        1.81718155579927        2.42717053607479
C            2.92280685737858        0.95797489416907        1.65547367148411
O            3.46483050105419        0.87936313817674        2.94492827206434
H            5.23143575836595       -1.02157877332557       -1.07228277829556
H            5.62037914716487       -1.75194154241389        0.51032173625927
H            6.64362960757802       -0.43568216019729       -0.14249181463472
H            3.41534686378242       -1.11488495536093        1.23937583916147
H            1.40383258814320       -1.46319855787133        0.03948412746282
H            1.55600704635163        0.16827579021860       -2.48529562351565
H           -0.03914464871987       -0.42053212930217       -1.91856829048180
H            1.16299776397903       -1.93955172210743       -3.32051950502529
H            0.86694792606543        1.54252157414909       -0.18446542996853
H           -1.10520210518916        2.17863197500671        0.12318852094635
H           -2.08756372523536       -1.14903348910150       -1.04584167850036
H           -2.66358038081164       -0.35056981705228       -3.29065618286756
H           -4.04017835170557       -1.27066597680027       -2.61587169353253
H           -3.83466679142885        1.54020566126021       -2.64625886572310
H           -4.68990201064476        0.20152588001394       -0.21867040418184
H           -4.95243766022082       -1.97668559429898        0.59192467217195
H           -2.48276843868303       -0.95826029180913        1.55674143472311
H           -3.95542424216594       -0.11476278688377        3.16012155196644
H           -3.40031903783874        1.90212409142071        1.04452289533656
H           -2.20188234738920        2.40134003189566        2.79372132295666
H            1.24335479012144       -0.19740849269621        2.30466730125774
H           -0.09678658150396        1.57866325994808        2.63808266474770
H            3.11481601793727        1.94031917704022        1.20293910171809
H            4.41192269457419        1.08193100435950        2.90161937704027
