48
 energy: -84.745368559121 gnorm: 0.000735134595 xtb: 6.7.1 (edcfbbe)
C            5.57990978800961       -1.02486167207754        0.10665467198114
O            4.87012516744135        0.02282414326416        0.76538481854562
C            3.51223967161237       -0.19649558794925        0.88343878916610
O            2.93548247287223       -0.23587588680562       -0.40395092942030
C            1.54672007760535       -0.49573579572280       -0.42078900168612
C            1.12168425300475       -0.54363764737216       -1.89758734940058
O            1.57360809996097       -1.69395492557496       -2.55679697907644
C            0.78678069784734        0.59738497003200        0.34975955146415
O           -0.57815507900941        0.23976367820465        0.49438938529804
C           -1.54115156417581        1.20178307280390        0.13197538078752
O           -2.06506897709038        0.95389543654476       -1.13472066762994
C           -2.76088303100606       -0.29020308734076       -1.26210100503651
C           -3.13648185259408       -0.37664742226360       -2.74139933981732
O           -4.03587459183970       -1.63106636272240       -2.90936888828848
C           -3.92988251095721       -0.32815040642914       -0.24260129153918
O           -4.57355294452814       -1.58331771868594       -0.33616998326711
C           -3.39488131989527       -0.10314577613359        1.17113077775699
O           -4.48449111843903       -0.11553058387694        2.06621942226318
C           -2.63747656792587        1.22729225490526        1.20903934143236
O           -2.13555424503343        1.45939420221343        2.50155459760279
C            1.37855049812271        0.75929452798861        1.75725319703968
O            0.74539442218762        1.85286641451187        2.37987400582451
C            2.90071198334130        0.95333836701393        1.69852184029813
O            3.43231289057377        1.07825061809301        2.98769930827507
H            5.20380351439825       -1.16042434890737       -0.90817545888634
H            5.48052114268637       -1.95895644842012        0.66714491519366
H            6.61620874177202       -0.70209170827268        0.08965046884646
H            3.31190971598649       -1.16754580675967        1.39334737629522
H            1.34422207990487       -1.46324631757551        0.06674625565186
H            1.59351484888303        0.29809526734680       -2.40828674546542
H            0.03394049065038       -0.43649680343842       -1.96650499761864
H            1.08205696223899       -2.46836032729098       -2.24739582792579
H            0.87966357610868        1.54609396459498       -0.19058831234344
H           -1.08038163118622        2.19637185377466        0.05963989006832
H           -2.07551186088978       -1.10882370410006       -0.98162435455245
H           -3.85758489900171        0.44769118012810       -2.92295431344041
H           -4.48637964247170       -1.84220044351598       -2.04929732440630
H           -3.43956574473578       -2.36471398585059       -3.15612538304586
H           -4.64108750631446        0.48026928612827       -0.47650869459830
H           -5.20868032871575       -1.65702537443120        0.39246091024178
H           -2.68994022378372       -0.91085711221690        1.42556867097652
H           -4.18526866340184        0.24941606686153        2.91197775985312
H           -3.33990889311600        2.03625965777994        0.95431530561113
H           -1.16629400705903        1.56452133457399        2.47865955909282
H            1.15371238058516       -0.15998687859508        2.32386660247751
H            1.30213840481264        2.14682484846234        3.12089637955991
H            3.13409754809176        1.89052073305417        1.18253610053330
H            3.51071078244431        0.21153923917581        3.41345161953156
