48
 energy: -84.834700225070 gnorm: 0.000506425272 xtb: 6.7.1 (edcfbbe)
C            5.69892029426004       -0.75559633538162        0.54247682894491
O            4.88562626886367        0.23798467292720        1.16343723659146
C            3.53167945828392       -0.04400500659898        1.15688417273002
O            3.06222051377868       -0.04922736214056       -0.17334774353104
C            1.68077387849678       -0.31984312536252       -0.28869839138822
C            1.34280491964970       -0.37655667854394       -1.78400998747963
O            1.79229794186122       -1.54689125638151       -2.40933002456166
C            0.85990842592527        0.76071125026538        0.43962843459366
O           -0.51519794575985        0.42602835440675        0.40703164174018
C           -1.42872480849464        1.41284552622224       -0.01904775996762
O           -1.79657139712498        1.21414896170357       -1.35295181154053
C           -2.55855897641149        0.04932813921620       -1.57950937962875
C           -4.06735873495205        0.08171601378811       -1.50835195938794
O           -3.94614937660075       -3.02507165350096       -2.90017272054896
C           -3.27515261395569       -0.65227991062686       -0.46223733723927
O           -3.28721966621852       -2.04117460617999       -0.39596497899452
C           -3.20715459357917       -0.06535669704967        0.94297995737440
O           -4.48251478877998       -0.01980146793995        1.53913930284338
C           -2.64240548942767        1.36562509904944        0.92328846507301
O           -2.31078219252751        1.83025491826167        2.20106145290532
C            1.31424003324077        0.83642675351085        1.90481417143909
O            0.61077137425261        1.87489525042350        2.53710144634962
C            2.82861300999741        1.05037191411252        1.97567952813912
O            3.20006147907623        1.00984438257560        3.32710645606753
H            5.41537849982048       -0.88048662281608       -0.50313585511093
H            5.59804643477552       -1.70794074377707        1.07036060316416
H            6.71631546746903       -0.38446041447798        0.61981506327639
H            3.33106465830538       -1.03582483270466        1.61767845171748
H            1.45162723696072       -1.28928212125217        0.18289873423335
H            1.85533200482596        0.44695538377998       -2.28463556740390
H            0.26056376723597       -0.25329075271181       -1.89776549537335
H            1.32865515342206       -2.31403062970749       -2.04254331739285
H            1.03104113267067        1.73143632578514       -0.04003353392844
H           -0.97371951979001        2.41027952528709        0.01585770388911
H           -2.11639439900781       -0.55449552593721       -2.36307315704441
H           -4.55089610533566        1.00003428648241       -1.21999487598771
H           -3.29074095878827       -3.54854671271680       -3.37296335345318
H           -4.76263793651408       -3.53664495385003       -2.90696208380936
H           -4.59425742820696       -0.49939259449924       -2.24820794644761
H           -3.50712501399686       -2.41284519741268       -1.28067528296386
H           -2.52769787287554       -0.69564814946353        1.53584171231722
H           -4.83734335965840       -0.91997503072035        1.58331206570179
H           -3.41918564610625        2.04028923185177        0.54639769814580
H           -1.38653102023838        1.59961269855283        2.40623148585595
H            1.07676670970412       -0.12266650416119        2.39204433131429
H            1.01098905526554        2.02678051265129        3.40863440562188
H            3.08333254579774        2.01991245200054        1.52330194380998
H            4.15976847860929        1.12180541431193        3.39963779077480
