48
 energy: -84.737084966144 gnorm: 0.000429487350 xtb: 6.7.1 (edcfbbe)
C            5.65150121210415       -1.09708160987893        0.24587248096053
O            4.93712506050515       -0.00004864432190        0.81203034479228
C            3.56296631837864       -0.17444963510237        0.85441072288376
O            3.05870450399691       -0.25453401919869       -0.45095337029565
C            1.66757680564059       -0.52055706481208       -0.54576087726241
C            1.46425063085675       -0.59565563447347       -2.05697815219466
O           -0.01754277845979       -0.82648172329712       -2.37674900090770
C            0.86463383081802        0.56816777630342        0.23212745253200
O           -0.48196712212122        0.13963329467463        0.45500129803297
C           -1.50221584314386        1.03460273651339        0.10761116144244
O           -2.06205730582007        0.68457025021236       -1.13222062204396
C           -2.93339100816506       -0.45505938985733       -1.14201776844064
C           -3.53173572219883       -0.48712390236435       -2.55438779372859
O           -4.22645015452242       -1.70024515853226       -2.72531263763024
C           -4.02674067054221       -0.41830651325625       -0.06224721836157
O           -4.67114277343248       -1.66162260226522        0.01260981815862
C           -3.39881424743559       -0.13195141721901        1.30601496722460
O           -4.42905207586263        0.03245683436803        2.24457003662851
C           -2.54253053183483        1.13845876578913        1.22754572762534
O           -1.94874233657437        1.35321300355805        2.48192682031373
C            1.45233097199443        0.86423774212220        1.61930874981192
O            0.80787508190294        2.01533171553244        2.12502376821289
C            2.96527104236108        1.04681657594115        1.56479277433091
O            3.43194624055547        1.18853082637678        2.87963903326358
H            5.32226370776117       -1.27330053988886       -0.77864886651515
H            5.49352463934350       -1.99711548728055        0.84688770615263
H            6.69611835703612       -0.80197868045435        0.26879449345243
H            3.30184771558677       -1.10009444665072        1.41496987581299
H            1.44682354828352       -1.48555100129371       -0.05229653240647
H            1.63580000485302        0.42714397008833       -2.44396459208777
H           -0.64994625593894       -0.23954567290155       -1.88868398598391
H           -0.18607544032706       -1.76740435362856       -2.17815864334566
H            0.87792747065194        1.50053935986971       -0.34815000071571
H           -1.07669640979468        2.03553578313104       -0.06178331691859
H           -2.36234244940946       -1.37548790253188       -0.95663770629816
H           -4.20212667346949        0.37403458105316       -2.66610634395254
H           -2.71490817573567       -0.39130616860836       -3.27839882450365
H           -4.54035016421546       -1.76797376780157       -3.63796928426615
H           -4.75290761055636        0.38280722752270       -0.27428953471244
H           -4.90329278512501       -1.94733090922560       -0.89035223362322
H           -2.75573734781312       -0.97995937266960        1.58664115152490
H           -4.02758813359003        0.29892546754102        3.08564251949640
H           -3.20904721836583        1.98345386255468        0.98662669338798
H           -1.03059142212386        1.66948723654051        2.37773921551602
H            1.23447125892738        0.00498586336308        2.27276158821985
H            1.28043012501043        2.29253313087094        2.92636078971749
H            3.21308787333987        1.93261865914285        0.96002500834109
H            4.40060725980319        1.20511093763097        2.86831016121686
