48
 energy: -84.855936440194 gnorm: 0.000469092830 xtb: 6.7.1 (edcfbbe)
C            5.51570155832808       -0.92523300080774       -0.02429950905497
O            4.77876769274321        0.11828882992123        0.60978007065349
C            3.43331732469991       -0.15056579253256        0.78076631618124
O            2.81113546321441       -0.24521022968483       -0.48180229966129
C            1.42756761471148       -0.52367664519270       -0.42475681674579
C            0.93210577788128       -0.63686521853295       -1.87351655748289
O            1.39557829574297       -1.78268954117683       -2.53125795872069
C            0.68618635107974        0.58969306861491        0.33720129665279
O           -0.67450455015592        0.24060307198723        0.53074528166380
C           -1.64833465869823        1.19142481860205        0.17177679511407
O           -2.21423065719526        0.90776763000254       -1.07569843227991
C           -2.94300448096463       -0.31549004631870       -1.15739468716996
C           -3.56224177327185       -0.30964696015940       -2.56972922238147
O           -4.71811841608602       -1.08621011790563       -2.71451508668591
C           -4.00284876089130       -0.46380662714838       -0.05548290188265
O           -4.44453213230287       -1.79939238251421       -0.08709009549234
C           -3.40250244501227       -0.13578334676033        1.31748609701373
O           -4.44347452812777       -0.16785562069259        2.26397689176865
C           -2.72048315121986        1.23616571173407        1.26728264744325
O           -2.20404953975175        1.58078286851901        2.52666150214362
C            1.32304388949845        0.78839179528638        1.72093629030326
O            0.68584416698408        1.87737629860746        2.34197899208511
C            2.83081349292020        1.00888857402763        1.58944328941346
O            3.36448665674754        1.07825121120316        2.88391101943735
H            5.12152514170942       -1.11766446141224       -1.02279073937604
H            5.46785076177168       -1.83822852884564        0.57582331087409
H            6.53737987349440       -0.56222887538219       -0.08156242043878
H            3.28673205970764       -1.10417080432999        1.33346055061656
H            1.26126655824659       -1.47310825677861        0.10988535614702
H            1.32937695919249        0.20925357963506       -2.43746023782276
H           -0.16253197445777       -0.58745714709207       -1.87536349425637
H            1.04526098487559       -2.57814923477456       -2.10473174268940
H            0.76491122901714        1.52469009820375       -0.22914727081757
H           -1.19394636316425        2.18385468190886        0.05482069621948
H           -2.25377492553088       -1.16401667000395       -1.03758893946049
H           -3.85155965613846        0.71956148670978       -2.79767054412208
H           -2.79369073202054       -0.61873380600149       -3.29118253418078
H           -4.59602672949936       -1.93750178180854       -2.26644197591161
H           -4.83891406019338        0.22486957499269       -0.24631574189315
H           -5.07994882035541       -1.92401112007934        0.63369056192624
H           -2.64227778576508       -0.89382692393394        1.56494850697648
H           -4.12984559887536        0.26654873536357        3.07182359491955
H           -3.46806628931534        1.99220182527790        0.98877629980648
H           -1.22874822425599        1.56810653410266        2.50928054105034
H            1.15814427424815       -0.12398428854073        2.31537422905537
H            1.19459687981825        2.11395882664203        3.13456146201048
H            3.02153589091186        1.93748442033834        1.03166620517334
H            4.32677336385629        1.17582175833259        2.82858149315383
