48
 energy: -84.856156059089 gnorm: 0.000369421394 xtb: 6.7.1 (edcfbbe)
C            5.60246782148028       -0.95905655257253        0.01627911177556
O            4.87523613866249        0.07120615515911        0.68254956847885
C            3.52826130052127       -0.18785026601727        0.83621853347543
O            2.92073859227028       -0.24614695331510       -0.43765428214436
C            1.53747121880256       -0.53195036563453       -0.41910671252767
C            1.08003099732847       -0.61256062575727       -1.88373352802485
O            1.57188691297772       -1.73950540648894       -2.55347341915588
C            0.78085265942317        0.56477602657239        0.35092693732043
O           -0.58557811229067        0.21647269133228        0.51006492361042
C           -1.54726200787968        1.17778077144820        0.15264255007955
O           -2.08360159400943        0.91592384661678       -1.11569546009384
C           -2.77148569596672       -0.32810714504812       -1.20016998051692
C           -3.24991023865473       -0.49860041324972       -2.64811274345206
O           -3.55814105275009       -1.83110309718874       -2.95073518132443
C           -3.93328904164456       -0.37893461715089       -0.19939517072138
O           -4.56138835680155       -1.63036491552399       -0.30814008724663
C           -3.38944797620575       -0.13727838305874        1.21311663426900
O           -4.47555894274892       -0.14002697591826        2.10719505041019
C           -2.64264124833455        1.20406606150020        1.22987553605060
O           -2.14190456197733        1.46765487959728        2.51509466619379
C            1.38996983318010        0.72696893472257        1.75072510110730
O            0.74869735084451        1.80531128889384        2.38850230713549
C            2.90778104470358        0.94666595497586        1.66689293594853
O            3.45937393028495        1.07485599068143        2.94682973966434
H            5.20974611344244       -1.11427241822563       -0.98950014025300
H            5.54445138405497       -1.89163228842865        0.58501553381850
H            6.62781112891216       -0.60488704910380       -0.02539952193064
H            3.36899944152897       -1.16344790411030        1.35099247583439
H            1.36220597202110       -1.49520816172214        0.08682067407591
H            1.48948853056496        0.25021794457074       -2.41304956466072
H           -0.01353320995961       -0.57026004058921       -1.91676497871204
H            1.14418901256179       -2.54123281346226       -2.21967575173784
H            0.87467452720507        1.51107378007169       -0.19340139072868
H           -1.08959282836324        2.17167005548319        0.06785830202530
H           -2.08279262377027       -1.15010409877085       -0.95703863484335
H           -4.11101213039071        0.15921746079948       -2.82317369870266
H           -2.44226814906823       -0.20055190660388       -3.32072361545547
H           -4.18443100160287       -2.15862213784202       -2.28324126232523
H           -4.64778873872546        0.42704174473966       -0.43271392523249
H           -5.18754259575538       -1.71968452284361        0.42699897980589
H           -2.68105366467131       -0.93912901741048        1.47322370242249
H           -4.17733292862474        0.23415064556141        2.94977743058439
H           -3.35610431483384        1.99995760733777        0.96989877557616
H           -1.16780257559950        1.49729906801543        2.50575312977859
H            1.19077354087495       -0.20009665290431        2.31422335593500
H            1.31207029626191        2.11020706949560        3.11968201499440
H            3.11809028334466        1.89020693895606        1.15254165373817
H            3.54150456832752        0.20999679223836        3.37576851228070
