48
 energy: -84.742368818142 gnorm: 0.000404315213 xtb: 6.7.1 (edcfbbe)
C            5.57943371915896       -0.88192300973859       -0.06452991527680
O            4.84735601114586        0.13027190500558        0.62412434238787
C            3.50830029352563       -0.15556852174678        0.80045541302991
O            2.87463140608297       -0.20348136731666       -0.46001006254255
C            1.50100035960165       -0.53145552018746       -0.40529292672594
C            1.00703996558555       -0.66326371471873       -1.84671701472065
O            1.38031831806292       -1.93446420303561       -2.32374876525091
C            0.74115772654059        0.55105994766991        0.37980012522881
O           -0.61519852660719        0.18293828426799        0.55255325750503
C           -1.59501540427710        1.13388018617997        0.20900316963119
O           -2.13896524507638        0.87779864922259       -1.04553460097326
C           -2.76950699968064       -0.41650562435052       -1.16710650160261
C           -3.01689416497968       -0.65840024308996       -2.63929578654489
O           -3.97450432079670        0.44247443383664       -3.14328713431774
C           -3.95750669160190       -0.45344526976328       -0.16592513281418
O           -4.61794833317578       -1.68973403338248       -0.27900395642374
C           -3.41508742439918       -0.22634069950378        1.24788172816759
O           -4.50026463793953       -0.25366602728693        2.14921552013063
C           -2.68397231442637        1.12237391875622        1.29433493903359
O           -2.17949600067071        1.37049230859543        2.58240462745005
C            1.37252802765607        0.70439692316168        1.77037246882913
O            0.72423077312892        1.75879684236168        2.44098156070360
C            2.88404280701968        0.95303502409868        1.66287211175050
O            3.45712774419147        1.06784441106661        2.93527354562478
H            5.16033476216646       -1.04612136165919       -1.05794242327901
H            5.55807431535902       -1.81669270487909        0.50313086031105
H            6.59462438487710       -0.50384681572784       -0.13445146948105
H            3.37580545719652       -1.14207429034350        1.30168028764133
H            1.36469955291488       -1.50029104025725        0.09959966596476
H            1.48110278040667        0.12990318330517       -2.43713181115438
H           -0.08104431068123       -0.54264386925959       -1.87029899240196
H            1.03059390926075       -2.04785024837279       -3.21929961674475
H            0.81666811481970        1.50209576765111       -0.15957377635655
H           -1.15218121676308        2.13716759027631        0.14185576370948
H           -2.06925013071592       -1.20052958585883       -0.84555411524161
H           -3.44681353420945        1.26131198528622       -3.05334693606217
H           -3.62266573685989       -1.57839150360505       -2.70824434290989
H           -4.80706876665025        0.51815175842574       -2.63041241092721
H           -4.66609435739047        0.36826919900880       -0.37432016763001
H           -5.18662256567321       -1.79573484398314        0.49825523044454
H           -2.69812970145026       -1.02556422469430        1.49351722631910
H           -4.19570832951811        0.09603292667295        2.99970059885991
H           -3.41020397805956        1.91583171148940        1.06208447565599
H           -1.20578010481366        1.37134332840982        2.56952984999623
H            1.20160271919079       -0.23685423566985        2.32003665243510
H            1.29830112747136        2.06144293764034        3.16478795322696
H            3.06801169687280        1.90975382507555        1.16292066855417
H            3.56613882513402        0.19610893716305        3.34348187054539
