48
 energy: -84.850470867514 gnorm: 0.000535281595 xtb: 6.7.1 (edcfbbe)
C            5.40909649431807       -1.14493898889016        0.02666787058759
O            4.77783213896613       -0.06972373298836        0.71883024678144
C            3.40291594929266       -0.18311623082251        0.82236419818010
O            2.82764214599582       -0.10467582033205       -0.46202774580551
C            1.42851156099001       -0.28252141702893       -0.46047740556127
C            0.96460938864087       -0.19488940226654       -1.92113210915446
O            1.38993060053897       -1.27423820215300       -2.70549499403778
C            0.71417399135268        0.77042466434042        0.40948096606813
O           -0.63090773140428        0.35044248119872        0.59503054155159
C           -1.64341660297569        1.28897421144535        0.34100609935619
O           -2.21103744693923        1.09011926180976       -0.92523354581165
C           -2.85307239017595       -0.17373286286244       -1.08702327213641
C           -3.34723430267546       -0.26603795102606       -2.54476900113463
O           -4.51144935803421        0.47033402694681       -2.80616303611164
C           -3.98899302319526       -0.33772090676569       -0.06592892085499
O           -4.66535713282532       -1.56157244497845       -0.20520789498856
C           -3.42271083428221       -0.16518651498488        1.34921210550022
O           -4.43909904735090       -0.19537148079393        2.32350768146602
C           -2.71994716368996        1.19310373173757        1.43911772586109
O           -2.11803638555605        1.39515961637163        2.68410713484669
C            1.37414474414095        0.96099228540996        1.78386681089858
O            0.89986866184614        2.17668861355446        2.30193008527996
C            2.90674132389092        0.98058466815396        1.69001108617640
O            3.40975836477652        0.90441968034696        2.99753655540163
H            5.03369088834351       -1.21254389603232       -0.99514769078883
H            5.22986570768520       -2.08730089740873        0.55200695220948
H            6.46816940224331       -0.90568186945114        0.02791541131977
H            3.11919691216516       -1.15010957572124        1.29222606047332
H            1.18780163806701       -1.27461141722521       -0.04147802373742
H            1.41595194807324        0.69269061467624       -2.36859294185708
H           -0.12655131096621       -0.09206687074364       -1.93959699080610
H            1.01090061120425       -2.09884060940379       -2.36909866498343
H            0.74079830664097        1.73809686926547       -0.10604825408404
H           -1.23484255430938        2.30500744556928        0.33136443790692
H           -2.10898801714152       -0.96649435642455       -0.91553616979240
H           -2.57123110459650        0.15896120902902       -3.18462229933229
H           -3.49095150343223       -1.32080252229486       -2.80032953523989
H           -5.27695385712633       -0.00004673999051       -2.44592953552406
H           -4.73801132686470        0.44437643200044       -0.23274251351422
H           -4.04192347278240       -2.29607376789247       -0.10103573091791
H           -2.67858990912752       -0.95227353396194        1.55467290083829
H           -5.07453386277700       -0.89012502469057        2.09058490169446
H           -3.46404760557078        1.98055814090381        1.23645406424871
H           -2.78056240721811        1.21037878471340        3.36932395727496
H            1.07408367542631        0.12408783437803        2.43130341823732
H            1.26124098137178        2.29483331996391        3.19333772742957
H            3.22072382707679        1.91330400640023        1.19847958747322
H            4.37851908246413        0.90790011007433        2.96572180766970
