48
 energy: -84.852434560980 gnorm: 0.000429222993 xtb: 6.7.1 (edcfbbe)
C            5.60203063586618       -0.94420436493426        0.03897644654364
O            4.85678362914992        0.09907289155716        0.66095759627779
C            3.50726338453353       -0.15158995714200        0.80196759896251
O            2.90295749527411       -0.20246950046565       -0.47537837605976
C            1.50722362824463       -0.45155277579626       -0.46177951405187
C            1.06823370894091       -0.50993426271418       -1.93186629290062
O            1.51691100331419       -1.67596614932621       -2.56654814926078
C            0.76715236361426        0.64627492996484        0.31981787776885
O           -0.60066146645572        0.30624371728071        0.47722385347395
C           -1.56216065037034        1.27140384462837        0.13001022005747
O           -2.10329180496243        1.02330389219094       -1.13612786939580
C           -2.76239132342978       -0.23766913551216       -1.23709191912293
C           -3.25013835946850       -0.39039811936474       -2.67454751266747
O           -2.13831236820991       -0.66096745224448       -3.49475568928509
C           -3.90881097554276       -0.33058859140699       -0.22301546958223
O           -4.51386832591073       -1.59222323961295       -0.32685607642107
C           -3.34399640796654       -0.09770034810229        1.19188310088036
O           -4.35633584112890       -0.23923670592270        2.15757364360792
C           -2.66286068126685        1.27810204376985        1.20789920577323
O           -2.17757608721011        1.63949555300665        2.46990819472725
C            1.37920011558385        0.77336600473010        1.72290016878621
O            0.74699594923726        1.83547011077093        2.39240963265143
C            2.89674290385827        0.98489600032797        1.63632008639371
O            3.45577088107429        1.10305851996006        2.91385478110534
H            5.30530749385453       -1.05824114318015       -1.00389163398217
H            5.45511734809028       -1.88799645428297        0.57152661542619
H            6.63999887255605       -0.63184570078276        0.10359962057371
H            3.33572311375768       -1.12715821404667        1.31153334461540
H            1.30317024265669       -1.42133766319952        0.01789620498975
H            1.44710972740930        0.38568739804343       -2.43816952648556
H           -0.01983048963042       -0.52124255749066       -2.00082430846065
H            2.48455226916436       -1.66618817068307       -2.58767829140521
H            0.86860000329788        1.60033460152079       -0.20907999510939
H           -1.10799071003775        2.26822728442243        0.06162729667550
H           -2.04815783099508       -1.04510065822452       -1.02614543382587
H           -3.74034704215594        0.54381975789255       -2.97257738965099
H           -3.96899877418251       -1.21742426706184       -2.69510540229433
H           -2.43172894514778       -0.75371282498035       -4.41222287016031
H           -4.64720147329845        0.45825932570710       -0.44821405466713
H           -4.99423574298405       -1.75957235368873        0.50129174512396
H           -2.60169204690094       -0.87439675646963        1.40969143918785
H           -4.75907525037261        0.62016854371973        2.34632238058096
H           -3.40455405354749        2.03841262771433        0.92361414931683
H           -1.22577369272975        1.44631561120037        2.53249387028307
H            1.17803734501883       -0.16888619064217        2.26103217430529
H            1.32074442998605        2.12945616987386        3.11992154716799
H            3.11239497616583        1.92962023935180        1.12646975800982
H            3.51012882940738        0.23841946898838        3.34789830325090
