48
 energy: -84.739708353841 gnorm: 0.000552948930 xtb: 6.7.1 (edcfbbe)
C            5.64958949118196       -0.97580715970131        0.28637844855941
O            4.90748493363832        0.07018212040728        0.91075147159477
C            3.53688347914462       -0.13556487220151        0.93333385527520
O            3.04479896800173       -0.16830658677030       -0.37853911273262
C            1.66000422150829       -0.45577174702027       -0.49522175092682
C            1.47157454323643       -0.48822995315122       -2.01050276905496
O           -0.00453047296963       -0.71916060708766       -2.35562666775077
C            0.83286088702987        0.59534411886861        0.30703254032057
O           -0.51087614026797        0.14294993156798        0.49242738857542
C           -1.53795375787105        1.03905820246176        0.15647354216906
O           -2.06478101040647        0.71625041155717       -1.10348733245244
C           -2.95843715745817       -0.40458078496415       -1.17282689971594
C           -3.57508122437422       -0.39223094026682       -2.57399665327120
O           -4.38712106981872        0.75236789825680       -2.70641956141589
C           -4.04920929609636       -0.38123566175041       -0.09973375079375
O           -4.73241886083701       -1.60488921569198       -0.18928430038492
C           -3.40712160876562       -0.19972220369248        1.27792769687973
O           -4.43449541293918       -0.16054424347016        2.23654685716620
C           -2.59153120534148        1.09464794117767        1.26848946966527
O           -2.02019792451730        1.28413339934564        2.53749112047378
C            1.39803751398093        0.83827174407135        1.71412751240442
O            0.73314779964471        1.95772817308609        2.26253318508708
C            2.90931526415928        1.04051198101143        1.69256268789669
O            3.35142067978741        1.12324449765804        3.02114465620579
H            5.32500655128144       -1.10353826716762       -0.74667521718787
H            5.51463855406192       -1.91122143394236        0.83657873215730
H            6.68616432062040       -0.65553652081111        0.32700870435288
H            3.29115773001655       -1.09092541188501        1.44923269943103
H            1.45133894712653       -1.43925329030970       -0.03420412190189
H            1.64187896898578        0.54632900620134       -2.36535801291767
H           -0.65539513212881       -0.13644939793595       -1.88087873889234
H           -0.17340481851348       -1.66084276374509       -2.16495500489838
H            0.84543655318904        1.54883579354484       -0.23707235299815
H           -1.12034300623163        2.04897869109578        0.02619266380005
H           -2.40427622243542       -1.34128187557929       -1.02704342762608
H           -2.76816305636640       -0.37724832794933       -3.31543364807560
H           -4.16719383094914       -1.30847834027434       -2.67701124433191
H           -4.76337703630751        0.76800311296124       -3.59738899821266
H           -4.73131355864946        0.46122757354629       -0.28426392193162
H           -5.35835146962153       -1.65365435819756        0.54899942659687
H           -2.72702989576319       -1.04187766313581        1.48354982257045
H           -4.05906412124094        0.15125874089538        3.07323147132669
H           -3.27147899667620        1.93232589124024        1.04236372519523
H           -1.09518162480453        1.58648571050458        2.45810702770004
H            1.18169252769758       -0.05200197824537        2.32548369700155
H            1.19326593560243        2.20539658056220        3.08071496319108
H            3.15567141652011        1.95775456853224        1.13607855530867
H            4.32023862650245        1.14376147547583        3.02946865116684
