48
 energy: -84.747559908911 gnorm: 0.000601753919 xtb: 6.7.1 (edcfbbe)
C            5.58668359832089       -1.13712225803241        0.25165345521249
O            4.88571915062399       -0.04573321024825        0.84406995479530
C            3.51253151084463       -0.20379400772901        0.89537808091076
O            2.99570741640263       -0.25080240160002       -0.41442929527550
C            1.59402712875229       -0.40883746314786       -0.48175435747499
C            1.20443822352542       -0.35868850417446       -1.96335441526348
O            1.50034866890069        0.92226311433559       -2.46759022611685
C            0.84986341895683        0.68865769089304        0.29753333053601
O           -0.51497932369813        0.32298537540396        0.42200588787262
C           -1.47724415280775        1.28319773491302        0.05838797345301
O           -1.98215802724982        1.04075508433910       -1.21880534454148
C           -2.63119148169870       -0.22762284252099       -1.34576941426035
C           -2.95854347390762       -0.42902447745232       -2.81786034432321
O           -3.36545041151305       -1.92911733111601       -2.88435948523952
C           -3.83738412495651       -0.25868534128049       -0.37364900296549
O           -4.51216727141523       -1.49092499332778       -0.50882974843964
C           -3.34242086160706       -0.04718590590946        1.05666681913360
O           -4.45515025149488       -0.06476931586428        1.92391745127381
C           -2.58709979595722        1.28433813633525        1.12240242540934
O           -2.09259740754511        1.49371941325371        2.42240899845359
C            1.41883656412484        0.84932394167152        1.71216985737554
O            0.79573166433347        1.96174597295252        2.30988332593083
C            2.93780120518383        0.99793261098941        1.65975597390572
O            3.41141775451012        1.05766380535732        2.97833533467198
H            5.28691098800390       -1.26072094655787       -0.78922649421356
H            5.38832842604155       -2.05798048905218        0.80724071899979
H            6.63781701578620       -0.87268629627625        0.31686854287065
H            3.24319534498427       -1.14406054067625        1.42641247858292
H            1.30651652737561       -1.38364253417401       -0.05705694683843
H            1.78259886563486       -1.12390729346827       -2.49396769819410
H            0.13371802936010       -0.57043077116227       -2.04891049378515
H            1.16771798116821        0.98251945258787       -3.37429265443436
H            0.95390171166585        1.63452408020122       -0.24480320050500
H           -1.02276264088083        2.28158272428030        0.00238939066372
H           -1.93392456300036       -1.01947756976177       -1.02432805628235
H           -3.90734798212969        0.12275727544261       -3.00813833530385
H           -3.70549299321877       -2.07603672420145       -3.78790119149156
H           -4.05401851227374       -2.12684404617611       -2.20270409214457
H           -4.51983389601157        0.56993553051317       -0.62838986929441
H           -5.13636697551214       -1.57728727591627        0.22700942085389
H           -2.64346367573555       -0.85574853785955        1.32362214583975
H           -4.17063026609175        0.26921439957624        2.78709388462466
H           -3.29002696075364        2.09579292441349        0.87626590316473
H           -1.12955370921876        1.64422128336811        2.39846938296501
H            1.17944276288483       -0.05829721995063        2.28902134365636
H            1.27902256257153        2.17295395483534        3.12553899447160
H            3.20247530292811        1.90666758784633        1.09980419108622
H            4.37995194918414        1.08435124965715        2.96595544218048
