48
 energy: -84.850860304464 gnorm: 0.000891400877 xtb: 6.7.1 (edcfbbe)
C            5.61167771300410       -1.01590230629119        0.05456012000184
O            4.86541120873114        0.03084414365088        0.66874896234578
C            3.51373250128371       -0.21319459301182        0.79744680289339
O            2.91621613897079       -0.20698373637983       -0.48483479788627
C            1.51719756574156       -0.43441894880184       -0.48974473948688
C            1.09068966589002       -0.42296854700674       -1.96511157660028
O            1.54862223940869       -1.55589150619282       -2.65138025084361
C            0.78297645439356        0.63934962940129        0.33119139262926
O           -0.58431745394364        0.28730994621936        0.48090596287349
C           -1.55725278600772        1.25103301073005        0.16797606389092
O           -2.10051032493514        1.03237545149610       -1.10453732440543
C           -2.73900807804745       -0.23606374989001       -1.23801925108293
C           -3.23313339912869       -0.35852929451609       -2.67615259966469
O           -2.12324134095972       -0.59114766003215       -3.50981912190265
C           -3.87865709082852       -0.37795134627524       -0.22138631657401
O           -4.46062592403902       -1.64729992535767       -0.35794158841443
C           -3.31312998615214       -0.17285863065583        1.19781648031113
O           -4.31745743927459       -0.35930822456395        2.16398514355278
C           -2.65962808315865        1.21542018810179        1.24548321629240
O           -2.19010723865374        1.57728474147976        2.51104734767557
C            1.39430890129189        0.69514546723291        1.74970124849895
O            0.75158950549149        1.65044044366054        2.55184802618498
C            2.91163615567137        0.90450332436755        1.67158330951197
O            3.50204105443757        0.98843590783056        2.93416459471045
H            5.31851853882954       -1.13591149700266       -0.98899748674122
H            5.46312105769311       -1.95668109284506        0.59206331712104
H            6.64975465061232       -0.70418060239982        0.12077762925826
H            3.33139287984092       -1.20370148673594        1.27000480349721
H            1.29455576780889       -1.41987198542086       -0.05283171744527
H            1.47385592708185        0.49593621989907       -2.42481166629196
H            0.00329392615404       -0.43278714430466       -2.04553480608682
H            2.51646508144660       -1.55085438242651       -2.64474034049960
H            0.87982691377457        1.61019445022628       -0.16737423936437
H           -1.11826077867316        2.25558597436556        0.12205095713819
H           -2.00970446237761       -1.03655956726032       -1.05377968728466
H           -3.73894705728331        0.57510683688041       -2.94750101828364
H           -3.93927537126943       -1.19554491696569       -2.71325838032299
H           -2.42388260236392       -0.67990628211902       -4.42519198750853
H           -4.63259528686014        0.40256760695679       -0.42292125538716
H           -4.93441226366045       -1.84692537706474        0.46690239570901
H           -2.55566561949515       -0.94120608146595        1.39206758156300
H           -4.74890023037777        0.48400527909295        2.36148422800826
H           -3.41357033552617        1.96736801999056        0.97525952196384
H           -1.28958294973637        1.23875633800952        2.65116680357005
H            1.18318172384450       -0.27152678595093        2.22692472736586
H            1.19469243450415        2.50772382245908        2.48026181907350
H            3.14129605246304        1.85646189186004        1.17961786689935
H            3.35677404603169        0.17315196469784        3.43688888949096
