48
 energy: -84.851348047160 gnorm: 0.000242686523 xtb: 6.7.1 (edcfbbe)
C            5.60980108894220       -0.99615109340717       -0.02445573620731
O            4.90485539055414        0.07725329277679        0.59309965354192
C            3.55774406192832       -0.15594870525147        0.78248628174042
O            2.91812533754626       -0.13731594185160       -0.47876721099043
C            1.52224658321445       -0.34095615917339       -0.42009405883272
C            1.00172280628898       -0.38412833177237       -1.87337691714406
O            0.40281389913952       -1.60813845810251       -2.21286136463938
C            0.82354255801436        0.76205395661675        0.40108676806480
O           -0.53561568863611        0.37451044254175        0.53835095600827
C           -1.52946364829858        1.30433381030381        0.21947510578482
O           -2.04453852699483        1.06657338548707       -1.06746794223528
C           -2.57319908046769       -0.24887760792670       -1.22747407565883
C           -3.00927356132715       -0.41777565774632       -2.68495003859888
O           -1.93848628542389       -0.42468103811873       -3.59076788973221
C           -3.74427734715483       -0.47887610237338       -0.26155671381949
O           -4.19076858604984       -1.80210667617465       -0.40368197201934
C           -3.27959000696788       -0.19428369322499        1.17476717282497
O           -4.32346827184319       -0.35940085243799        2.10386023981651
C           -2.67274240479877        1.21066269056672        1.24854561593416
O           -2.18907097618120        1.52518511355198        2.52285295794845
C            1.47377091204044        0.88096154105204        1.79040151644283
O            0.99670586136460        1.96907647517270        2.53768959404438
C            3.00919153420419        0.94733801392460        1.69398185617186
O            3.58577306399976        0.78260387348485        2.96110769711659
H            5.23335094303246       -1.17066742236435       -1.03376205028966
H            5.51186862392248       -1.90683184619874        0.57308618473260
H            6.64723677833425       -0.67722884967578       -0.05665485749593
H            3.38685589569845       -1.14014998999653        1.26664456807786
H            1.30173134367295       -1.29923067137650        0.07632182468155
H            1.84520303369980       -0.15299026640545       -2.53131624984436
H            0.22824590104093        0.37348852684319       -2.01665947126150
H            1.08078477220567       -2.29233854240695       -2.31044870626564
H            0.90420953899989        1.71754576652924       -0.13221336094539
H           -1.13655515408753        2.32673416435042        0.19633476600284
H           -1.79019394046325       -0.98549762132091       -1.00053606531548
H           -3.63963819706512        0.42617828895181       -2.97275706064124
H           -3.58639504636528       -1.34907025951559       -2.74902419017465
H           -1.27959072602874       -1.07794171822828       -3.29943911197804
H           -4.55560272167949        0.22386907114918       -0.52136052188512
H           -4.69777303555162       -2.04623130678136        0.38779327327828
H           -2.51278774176579       -0.92363778611179        1.45648883652589
H           -5.03748038524502        0.26884840994605        1.91360784624825
H           -3.43520096508707        1.94904006154391        0.94198928257444
H           -2.72613290415177        1.05942241026411        3.18464310843433
H            1.19442593830951       -0.00515338889260        2.37127553651481
H            1.16364878489803        2.79800332782813        2.06542520690756
H            3.31489499539119        1.90953815847356        1.25232239682767
H            3.12093456261738        1.36236821750288        3.58741035257262
