48
 energy: -84.844023988344 gnorm: 0.000931043185 xtb: 6.7.1 (edcfbbe)
C            5.61205782319689       -1.01128604189466        0.00638834702451
O            4.92088419841033        0.06151355724528        0.64124387641747
C            3.56234008697083       -0.13575132109746        0.77994117303163
O            2.96823764450013       -0.16206159022619       -0.50049864014704
C            1.57729013898867       -0.39435277768051       -0.48806683384695
C            1.11125726534575       -0.35039403427598       -1.94864424886275
O            1.18753335397954        0.97232005857455       -2.42198578148066
C            0.83175909440593        0.65154713000992        0.35393169024449
O           -0.51206916018420        0.21475275483752        0.53634599312981
C           -1.53432146466470        1.14223717007308        0.25037409033551
O           -2.10423535892100        0.93645614132684       -1.00332237440255
C           -2.81832719505020       -0.28748736602659       -1.15613268910842
C           -3.36836930002420       -0.29117440255456       -2.58999500357236
O           -4.10481237097216        0.86712251747556       -2.87491026802665
C           -3.96200413811850       -0.40450215734587       -0.12971410673552
O           -4.66055518434870       -1.60824793129739       -0.28976700972080
C           -3.38646962604421       -0.24792040612004        1.28382337046429
O           -4.44194577353869       -0.26581598285953        2.21134065296448
C           -2.57108900734681        1.04649149538547        1.39195119552396
O           -1.92480130519753        1.12347656762644        2.63968468610632
C            1.46849387926504        0.85076476763313        1.74210027809814
O            0.95874570263919        1.99595618161412        2.37768062188532
C            2.99146551817326        1.01715486162467        1.62785369684365
O            3.61316259279633        1.10841384604601        2.87434929616550
H            5.25441321182990       -1.14446377141430       -1.01560051785313
H            5.47545642774952       -1.93804767244801        0.57162397988070
H            6.65772545167712       -0.71926571599960        0.00778068036070
H            3.35554379078056       -1.10908340203497        1.28315556640968
H            1.36962122947183       -1.39212229769197       -0.06704824743727
H            1.76078256140973       -1.01863255861512       -2.51972539032910
H            0.07540329534822       -0.71048745859677       -1.99710315605887
H            1.30814303803941        0.97023430409805       -3.38053571194034
H            0.86074844459707        1.60458452194272       -0.18501867720794
H           -1.12461408833933        2.15886970504259        0.20749808390988
H           -2.12995435582999       -1.13461303459603       -1.02159691088030
H           -2.53484102161643       -0.40080449787333       -3.29445449739307
H           -4.05610999273442       -1.13135459477364       -2.70068417608563
H           -3.53205546083092        1.63324138147542       -2.72477144020011
H           -4.69642616975624        0.38600177865865       -0.31433868205525
H           -4.13164031055085       -2.34720264797530        0.04464923258310
H           -2.70474948788303       -1.09831805302568        1.47368869802124
H           -4.12655387142307        0.07405527000481        3.06305624133335
H           -3.24336914275121        1.90689742853980        1.33572581514536
H           -1.41885866986484        0.30447848421302        2.76598762800167
H            1.26089366275486       -0.04942674371501        2.34437494267483
H            0.00923414215729        1.88719827215942        2.56911895799506
H            3.21652972404168        1.95847228893823        1.11849698880156
H            3.42432219306179        0.32160299769862        3.40831165090931
