48
 energy: -84.852947725712 gnorm: 0.000710602782 xtb: 6.7.1 (edcfbbe)
C            5.63043517382056       -0.72861566343170       -0.02784724903489
O            4.87054221115234        0.23732788535834        0.69411882218327
C            3.53325701319336       -0.07264616820386        0.83715715108669
O            2.91976555374726       -0.09579340356467       -0.43570665929309
C            1.54276937081519       -0.41613213355278       -0.41085274016745
C            1.05011956939826       -0.46574135767678       -1.87640286098937
O            0.69457109380997        0.78729244974038       -2.39819058594256
C            0.77514763750314        0.62684979240883        0.41343718287479
O           -0.58561968102164        0.24358025899859        0.53722477508858
C           -1.54953301919286        1.21289540675846        0.21803297419198
O           -2.05114042367617        0.99818259100991       -1.07553521024494
C           -2.73623848288351       -0.24514550642513       -1.23313623823315
C           -3.19001099978721       -0.34469260970466       -2.69772821865878
O           -2.21355497617647       -0.91309116228072       -3.53297489545434
C           -3.91766683167676       -0.34511779792599       -0.26096144550582
O           -4.52309274074981       -1.59871605575132       -0.43688576818879
C           -3.40506533144277       -0.16177931846629        1.17231153865470
O           -4.50946068059801       -0.21169657289007        2.04232095058988
C           -2.66713247407647        1.18039140865569        1.26882124353693
O           -2.19228036888142        1.38239368727915        2.57553444174002
C            1.37764587410373        0.72850024731023        1.81877662057164
O            0.70834824746905        1.75315373838345        2.51421939334391
C            2.88683183373493        0.99579910182929        1.73392592183869
O            3.45105053058920        1.06738954741257        3.01319959389833
H            5.27032327451729       -0.80791471931237       -1.05424207224390
H            5.56875531645502       -1.70407253159291        0.46319344460000
H            6.65163711461765       -0.36040059365744       -0.01051646522435
H            3.40852054140673       -1.07822114634908        1.30354269355517
H            1.40486725639332       -1.40667311253836        0.05005904378253
H            1.88242008870237       -0.83148098017095       -2.48229390857193
H            0.21498034693405       -1.16581960491098       -1.94737570750509
H           -0.24283865093143        0.96244085157713       -2.21388637324997
H            0.86558493636291        1.59825588960807       -0.08533676420923
H           -1.10258045071606        2.21502740224956        0.19015440294566
H           -2.04567472491541       -1.06927855990538       -1.00466316310548
H           -3.36494319617034        0.66825659208455       -3.06593242909683
H           -4.12265898885344       -0.91353530611861       -2.73272813363244
H           -2.24952329058547       -1.87676609180740       -3.45985672327231
H           -4.63599869705665        0.46182696525536       -0.47697850619322
H           -5.16643430933249       -1.72417245639774        0.27792901922644
H           -2.69682093370924       -0.97067783639673        1.41115858038472
H           -4.22993376371393        0.12157648213302        2.90815749993585
H           -3.37985384960356        1.98465755254091        1.03349986494691
H           -1.21827984560645        1.42570265731973        2.58561136843556
H            1.20785830383002       -0.23233623085573        2.33346517420552
H            1.26828411005504        2.04052269107094        3.25477817868719
H            3.06464535750066        1.97216192414401        1.27130028136546
H            3.55164997375489        0.18242276379214        3.39470607356823
