48
 energy: -84.855023097941 gnorm: 0.000259428681 xtb: 6.7.1 (edcfbbe)
C            5.74989809745788       -0.60387844730656       -0.08936345531105
O            4.90441811904124        0.37282980107351        0.51083487602449
C            3.60433352462728       -0.03611221257517        0.72720134596817
O            2.94591260836387       -0.12389668096301       -0.52164142670131
C            1.57791026556925       -0.47530145027279       -0.43945544361115
C            1.04227395154181       -0.55284786858841       -1.87603437639273
O            1.42415929473878       -1.72641329358174       -2.53781820899061
C            0.80178484386590        0.56587265966485        0.38002310710172
O           -0.54289789125371        0.13595123861876        0.54533763140791
C           -1.55574741705162        1.06626660832100        0.23659793405527
O           -2.10471607119879        0.85390730543506       -1.02614155418872
C           -2.85203571425098       -0.34984149412019       -1.18358209234409
C           -3.35826917654030       -0.35923209369518       -2.63245993169095
O           -4.09170354169904        0.79471778415108       -2.94506491476404
C           -4.01444252648471       -0.40643476186628       -0.18795790178844
O           -4.66308630889902       -1.63959776987672       -0.35589067668611
C           -3.46936724169631       -0.26577452821516        1.23909910586822
O           -4.57092306801373       -0.23044440274016        2.11452884548180
C           -2.60544334365484        0.99222094349162        1.37035705488717
O           -1.96104606234697        1.03180353195860        2.62117487590066
C            1.43629759497079        0.75797686615040        1.76580760067564
O            0.90172275564963        1.87336234069094        2.43779112393330
C            2.94736564337062        1.00027777123502        1.64838923628497
O            3.56474571720431        0.89213026384944        2.90113324294828
H            5.41686413731963       -0.82917816710183       -1.10330484723946
H            5.76140346080097       -1.51750630023002        0.51118312502141
H            6.73812519996544       -0.15401212124866       -0.10860574268692
H            3.57468575650402       -1.02712225425688        1.22692241756578
H            1.46994213030827       -1.45851283242920        0.04517775195565
H            1.38480793370075        0.33774088349124       -2.41592812760328
H           -0.04803823113900       -0.56073104726484       -1.84827131340535
H            2.38605963242751       -1.73203135449352       -2.64064105282739
H            0.83397933609439        1.52284765469853       -0.15525963519192
H           -1.13903623144905        2.08059254536527        0.19176769977400
H           -2.20944597713193       -1.22463796873097       -1.01666024385661
H           -2.50080113252093       -0.47015880760607       -3.30708983324612
H           -4.03332203455644       -1.20681303456637       -2.75675642921030
H           -3.51538785043911        1.56304105854006       -2.81952885793622
H           -4.70344475312854        0.42661776057314       -0.39167871114475
H           -5.37868489608388       -1.69784829443037        0.29567228555112
H           -2.84267845380364       -1.14981455433868        1.44796275668944
H           -4.27208558394308        0.01431650996203        3.00299621740918
H           -3.24527478574692        1.87799367772617        1.32147637734583
H           -1.50194842290332        0.18556696553055        2.74770735561967
H            1.28132661948132       -0.16090069150912        2.35160560952303
H           -0.04992966188565        1.74675260918156        2.60913064718668
H            3.11786324596293        1.99258027609680        1.20841238611554
H            3.19820951570077        1.57625834362025        3.48344933788296
