48
 energy: -84.848162559820 gnorm: 0.000505050102 xtb: 6.7.1 (edcfbbe)
C            5.63207048372699       -0.90047012948877        0.04981481452490
O            4.89917310216081        0.12214316252896        0.72172319515190
C            3.55066167712411       -0.13656148390088        0.85523018774891
O            2.95465563764550       -0.16367962656646       -0.42575154148186
C            1.57288509637560       -0.45507536409492       -0.42448802517106
C            1.11857964357512       -0.48889524436086       -1.89073650614492
O            1.62112729386985       -1.58332167699157       -2.60470136211759
C            0.80006669237309        0.60868951633864        0.37551086127143
O           -0.55942405980324        0.22988070250069        0.52154431784896
C           -1.54331493497829        1.18427594977842        0.18830036868446
O           -2.06985344626603        0.94690106288617       -1.08177746871439
C           -2.77650119171457       -0.28423683873231       -1.21533043527990
C           -3.36690684745571       -0.31209548829117       -2.62635756055820
O           -4.31730870873508        0.71871897543031       -2.74849981549461
C           -3.88646478840853       -0.46492225000051       -0.15771489181259
O           -4.48150060208909       -1.72873659351576       -0.29110225698775
C           -3.30514080459256       -0.22682828861343        1.23892787921435
O           -4.32443918535874       -0.31943517634069        2.20090861047553
C           -2.63649708728468        1.15605187947714        1.26306665187309
O           -2.15129701944498        1.44443915879511        2.54921898059731
C            1.40476748371605        0.74065519153862        1.78072008279432
O            0.74981786709148        1.79301515848685        2.44616140726734
C            2.92062993985044        0.97736857448814        1.70596892114469
O            3.46784091093148        1.08507754851729        2.98947827175634
H            5.25728917127913       -1.03411048053106       -0.96585834066278
H            5.55733307654959       -1.84296398162805        0.60011432185304
H            6.66042493952797       -0.55302893416904        0.03385873725412
H            3.38404821732315       -1.12403661160621        1.34471907727685
H            1.39978366305850       -1.43497662323569        0.05000983473459
H            1.51447816861142        0.39747138963115       -2.39011432043337
H            0.02347404257157       -0.45842934233236       -1.91930446956739
H            1.26930736947756       -2.41047190418826       -2.24471625116376
H            0.87732375801572        1.57219140276942       -0.14021487958821
H           -1.10252791112193        2.18781902450583        0.13258759042079
H           -2.06642160911330       -1.11820997470110       -1.10829732562198
H           -2.54969547786907       -0.17270777398841       -3.34437588817216
H           -3.83402554070446       -1.29367872866402       -2.77195976952442
H           -4.68420996125590        0.70218760227824       -3.64356924541880
H           -4.68034956416932        0.26475070500774       -0.34808270567802
H           -3.95499028070588       -2.39224965351763        0.17812087439800
H           -2.52858170258801       -0.98498287674385        1.44345518747340
H           -4.01644080952654        0.12965785153498        3.00431008673222
H           -3.39016589931523        1.91284941539244        1.00577064664213
H           -1.17641639930635        1.45185785684155        2.55366427190568
H            1.21513903545824       -0.20364190604361        2.31882717533182
H            1.31203654076317        2.09108556011431        3.18096384732472
H            3.12380952847554        1.93255802774105        1.21055297961820
H            3.55847850128922        0.21282723170713        3.40130296429979
