48
 energy: -84.854120902629 gnorm: 0.000700522199 xtb: 6.7.1 (edcfbbe)
C            5.60659210578895       -0.81785407777921       -0.06240942169943
O            4.83708422017362        0.18122565968475        0.60239486535510
C            3.51348153328824       -0.15797122172705        0.79725804524553
O            2.86930910570579       -0.17643964518264       -0.45938079944130
C            1.49295812450792       -0.48482085270320       -0.40981703794639
C            1.00270143796196       -0.58768446194702       -1.86207335078040
O            1.50123300940941       -1.70693980156387       -2.53930292823557
C            0.74552082236968        0.61465202908620        0.36595097203722
O           -0.62201918053042        0.27068980653180        0.53967374055354
C           -1.59855028667583        1.22085986466149        0.18895574860536
O           -2.15055803872891        0.94376917413777       -1.06615348049272
C           -2.84750991829759       -0.29985717820944       -1.14606276842745
C           -3.45147663437099       -0.37133331207535       -2.55477459572323
O           -4.31778098938020        0.70023592849617       -2.81570356873501
C           -3.93633909457795       -0.43555487016333       -0.07429698793757
O           -4.42232492552519       -1.75173006409127       -0.14726402271912
C           -3.35826157000046       -0.13222803106182        1.31400399787856
O           -4.41193666732788       -0.16646349258314        2.24642433549194
C           -2.68083705642093        1.24356190332648        1.27848855475002
O           -2.17914205877051        1.61705634246384        2.53254157052329
C            1.36447948748042        0.72554490581181        1.77386748133127
O            0.75775964615040        1.73874712509785        2.53571894634908
C            2.89045877945876        0.89094286333652        1.72993791585417
O            3.44828955746960        0.70432022146725        3.00201030431306
H            5.19513614719084       -1.01972904552456       -1.05288702632038
H            5.62221444574213       -1.73755100137494        0.52918036561320
H            6.60728894420993       -0.40430409541886       -0.14253319381119
H            3.42331683344948       -1.15672432573957        1.27439235741482
H            1.34043941243697       -1.44280810123678        0.11185831679051
H            1.37602300015341        0.27903978238288       -2.41104802493724
H           -0.09293885384268       -0.57501348588168       -1.86462113746305
H            1.17065543522040       -2.51997368822114       -2.13097749553117
H            0.84261273792861        1.56249658056398       -0.17572894238858
H           -1.15433559174917        2.21920466122430        0.08305046401949
H           -2.14627766471758       -1.13297763731475       -1.00622941656806
H           -2.63789788961305       -0.39897753467089       -3.28949944027719
H           -4.04535683338896       -1.28299815946726       -2.62968995767102
H           -3.81272567673277        1.52301677095038       -2.74016617523233
H           -4.74252396458796        0.28438680352516       -0.28252993835690
H           -5.07506810193153       -1.87069844338172        0.55899331415517
H           -2.60597257597628       -0.89756329902217        1.56290798334401
H           -4.11781370801253        0.27805008297005        3.05585635983504
H           -3.43325571179764        1.99477635489556        1.00853039345542
H           -1.26067660860542        1.31047272821126        2.63773374740056
H            1.13568114401989       -0.20459259613810        2.30799628973338
H            0.98547661692668        2.61182362716288        2.18115055222541
H            3.15708955127145        1.88028104254283        1.32629573488944
H            2.99352250992804        1.28185714130201        3.63707646074087
