48
 energy: -84.852550182863 gnorm: 0.000813760024 xtb: 6.7.1 (edcfbbe)
C            5.62510241166276       -0.91793775961635       -0.01942545388393
O            4.89075734857049        0.12445589444330        0.61945000338272
C            3.54012348002667       -0.13340130713958        0.76780077723958
O            2.92858803661237       -0.17011325599046       -0.50246704308058
C            1.54326007845582       -0.44678707870821       -0.46237909972190
C            1.07835982663189       -0.56994910911517       -1.91439942205168
O            1.33863829716150       -1.88398921171150       -2.34692961830707
C            0.80273728440153        0.65594692207017        0.31873975402081
O           -0.56474975121971        0.31432117489964        0.47462030973705
C           -1.53345658395028        1.27499771582437        0.12779333821251
O           -2.06857635798796        1.01999802942741       -1.13833261944500
C           -2.71188054383155       -0.25268705049843       -1.25316375100319
C           -3.22331857469315       -0.33083864253932       -2.69972119903153
O           -2.20475763146088       -0.07382602408928       -3.63079373078560
C           -3.84139283698311       -0.39763600155585       -0.22100141907244
O           -4.37174591553151       -1.70148012564368       -0.19924573232868
C           -3.30092530196103       -0.11717273559043        1.19319277929586
O           -4.34595176248971       -0.12942659670515        2.13027964196214
C           -2.63391904177225        1.26746952124971        1.20507653255048
O           -2.13213860100302        1.63586864601789        2.45505655216090
C            1.42773094585212        0.79366702310093        1.71582860405373
O            0.80010645896587        1.86238485893199        2.37577277091820
C            2.94037426130934        1.00219009327556        1.61017791271252
O            3.45833376754643        1.02058686525619        2.91280696074312
H            5.22889135356835       -1.10625588783070       -1.01767257772117
H            5.57473083222374       -1.83364071513118        0.57622409298893
H            6.64761595203325       -0.55705312441544       -0.07595796399035
H            3.37469918819417       -1.10514158783300        1.28099062340677
H            1.36703990379663       -1.40969350701868        0.04169519115004
H            1.64295520233554        0.15882424658976       -2.50747927167681
H            0.00854773572715       -0.34671447227613       -1.97615803828811
H            1.08894262028001       -1.96828245036673       -3.27867198565554
H            0.90245557038310        1.60877602175242       -0.21373913156777
H           -1.08825981623610        2.27550001173190        0.06408179694545
H           -1.97561455427877       -1.04724981591825       -1.06913056263374
H           -4.04534709017891        0.38524112246319       -2.82406836223823
H           -3.57501730158418       -1.34110780680307       -2.91120165028583
H           -1.88920551709374        0.82958833127136       -3.48832944599717
H           -4.62573682425424        0.34358501559874       -0.43158045548225
H           -4.96898751792597       -1.83811287252325       -0.94700736709637
H           -2.54833178976140       -0.87929246333344        1.44379861527411
H           -4.79439276342478       -0.98727370362589        2.06543634184480
H           -3.39415894494726        2.01460504196927        0.94731058681620
H           -1.21282091006969        1.32912473876095        2.54077776667069
H            1.24982710533341       -0.14314356898112        2.26804248123043
H            1.29558447445303        2.05355571661525        3.18843182829450
H            3.14684327448435        1.94880975056160        1.08937652297128
H            4.42179753538807        1.11251011496827        2.87223320734493
