48
 energy: -84.853720669039 gnorm: 0.000384164858 xtb: 6.7.1 (edcfbbe)
C            5.68737988180753       -0.81368844693303       -0.09818142772657
O            4.91157258077234        0.17491311711831        0.57573435017158
C            3.58975933098594       -0.17508307516034        0.76517915115412
O            2.95555352916241       -0.20728250776168       -0.49609052553449
C            1.58119533923498       -0.52684462483379       -0.45720234493289
C            1.09795593763151       -0.60062466280897       -1.91361229434814
O            1.62130489666599       -1.69100538618095       -2.61887233035950
C            0.81993516500627        0.54468536483420        0.34046752993895
O           -0.54599935564111        0.18127075833302        0.48988329975574
C           -1.51290816301355        1.14243013294174        0.15762716471858
O           -2.05117814531349        0.91325650276316       -1.11502232815948
C           -2.74977628963493       -0.32344949931296       -1.21859483441576
C           -3.20780806898823       -0.48131761532547       -2.67537842229859
O           -3.47892853428039       -1.81525518431609       -3.00666129893672
C           -3.92668140018394       -0.35800477148829       -0.23290071018022
O           -4.60714756712341       -1.57928665082779       -0.39700521146211
C           -3.36882262492348       -0.18835449061785        1.19339086013901
O           -4.38788656542366       -0.12428599052909        2.16650289490820
C           -2.60359626688422        1.13711667102331        1.24171900248746
O           -1.98127812763772        1.34824466700948        2.48002654761200
C            1.42812027354568        0.67265363219869        1.74895201983673
O            0.89858864721125        1.76944400957478        2.45067334734635
C            2.94928137635188        0.86819221135540        1.68951092079818
O            3.51853556817028        0.71638977089470        2.96063475237282
H            5.27401489811393       -1.01274931473136       -1.08846255895615
H            5.71247380522417       -1.73692324811562        0.48772550454362
H            6.68388226328938       -0.39034470274111       -0.17897548983323
H            3.50794940004056       -1.17404635723668        1.24499572337652
H            1.43925078454381       -1.49873856330420        0.04294733071206
H            1.45628285257475        0.28933208291385       -2.43475202534514
H            0.00278812613707       -0.60767465472750       -1.92293475493823
H            1.27847340893678       -2.52004186942621       -2.25479470575575
H            0.90989151582403        1.50472983301637       -0.18050707494003
H           -1.06414184134116        2.14194768989141        0.10118933981340
H           -2.07238230406796       -1.15388366076329       -0.97253402407364
H           -4.08147285961447        0.15830484281330       -2.85435027083433
H           -2.39748755708081       -0.15185502052575       -3.32931789127106
H           -4.12202616445310       -2.16635256513955       -2.36735267805289
H           -4.59019548864811        0.49110647413814       -0.45030917457909
H           -5.47734309916763       -1.52209650911665        0.02374346813555
H           -2.66730981173061       -1.00427740709299        1.40734678722327
H           -4.67859120277492       -1.01672069639153        2.39995176273331
H           -3.30768340101106        1.95355505378414        1.02170513534450
H           -2.65166056547346        1.24970188337817        3.17607027279266
H            1.21985728286204       -0.26306809610434        2.29122527201614
H           -0.06241010376007        1.64791885825643        2.56577902059920
H            3.16908007304015        1.86213734552840        1.27547739760196
H            3.12274657958204        1.37782066710536        3.55060761113240
