48
 energy: -84.850297310340 gnorm: 0.000260707902 xtb: 6.7.1 (edcfbbe)
C            5.60381683516162       -1.05428181850018        0.08583175428139
O            4.90878059198855       -0.02409354575250        0.78436691913520
C            3.54238646983089       -0.20458623725730        0.86277398944758
O            2.99192241897897       -0.15807795354274       -0.43602253620898
C            1.59391485080302       -0.34722097050769       -0.50119966526987
C            1.19776650385273       -0.17145921996943       -1.97168499830639
O            1.43840963428583        1.16432399028660       -2.34489825622879
C            0.83280986575295        0.65678860355298        0.37984540385407
O           -0.51758471208951        0.23770513415079        0.51425619530971
C           -1.51918132828327        1.18893332288143        0.25374306749641
O           -2.05456764726183        1.01977132614340       -1.02705542769345
C           -2.68403596851647       -0.24737192744651       -1.21473649489475
C           -3.14512977776415       -0.33005851933296       -2.67837298527356
O           -2.19019986701402       -0.92874698756875       -3.52008941416926
C           -3.85891306267480       -0.42168587298610       -0.22796929918864
O           -4.52304848924126       -1.63762246353828       -0.44320836235075
C           -3.31944101725383       -0.27681806287568        1.19964060597967
O           -4.37909776250758       -0.38692266840175        2.11544927111760
C           -2.60504834327115        1.07769089613704        1.33329192368644
O           -2.09289016079018        1.21285660040763        2.63574204457092
C            1.43142953603778        0.71778741792636        1.78988141855466
O            0.79439327460452        1.75847338874736        2.49287195278873
C            2.95073059750476        0.91536959199186        1.73112750869898
O            3.49427729219593        0.97969512147480        3.01978424200507
H            5.28009087444113       -1.09483615410065       -0.95473987940494
H            5.43040890939131       -2.02161252674957        0.56648278687091
H            6.65346829045973       -0.78385996588534        0.14745484765569
H            3.30143908576250       -1.19642954031058        1.31320103324352
H            1.33704944373758       -1.36482527262248       -0.16638430770609
H            1.80574558600499       -0.85845249621965       -2.57072927285969
H            0.13609627518820       -0.41688409132142       -2.08814874248464
H            1.22991733561682        1.26907545934609       -3.28354449266860
H            0.89349148589328        1.64615552114642       -0.08464459079792
H           -1.09829736593848        2.20276919439364        0.25649801552190
H           -1.94490479676473       -1.03871960426582       -1.01819423859772
H           -3.28536933146388        0.69003662173129       -3.04090224685476
H           -4.09848738035428       -0.86451386258327       -2.71470301759381
H           -2.26515465372689       -1.89159454647449       -3.46262574880642
H           -4.60120765616670        0.36382167130396       -0.40935295802697
H           -4.08290905250179       -2.34651775604814        0.04764422924372
H           -2.57538427875575       -1.07006753492555        1.38883937770072
H           -4.07138790346950       -0.05258377582974        2.97223127110377
H           -3.34109569331208        1.87659119966117        1.15822192553495
H           -1.13467853058400        1.38755744099180        2.61078878288474
H            1.21378435067660       -0.24198009735656        2.28908758837650
H            1.36253483656234        2.01704402909050        3.23813746828290
H            3.18479455028599        1.87175599386288        1.25251359763149
H            3.57035188638295        0.09414893553099        3.40503877850536
