48
 energy: -84.737844790298 gnorm: 0.000679612983 xtb: 6.7.1 (edcfbbe)
C            5.61220593368416       -0.94366282520386        0.00593517550163
O            4.86238481171642        0.07820849957310        0.65767299744869
C            3.51701545652253       -0.18917741205300        0.80515976582386
O            2.89949452820781       -0.21494215626733       -0.46577929549131
C            1.50840035470874       -0.48448791033018       -0.43934582089236
C            1.04463467864664       -0.52157660659014       -1.90301006922566
O            1.50582255869320       -1.66467443139852       -2.56947216702315
C            0.75999577390373        0.58501076667927        0.37429980522126
O           -0.59978600938499        0.21492202455425        0.53005961524620
C           -1.58391601030178        1.17167892075262        0.21095453781611
O           -2.12011381656782        0.94260009737919       -1.05261418530509
C           -2.73696350928397       -0.34936796515163       -1.20955382458426
C           -3.05925142436765       -0.50632595528205       -2.68625865580220
O           -3.85280961362433        0.74193809593504       -3.11086666629503
C           -3.89092068557804       -0.47205077932611       -0.17877667775299
O           -4.55511511425096       -1.71295256394113       -0.26778257103053
C           -3.35766866525782       -0.24388895361217        1.24619190468365
O           -4.40716463994694       -0.28255510524169        2.18567133608638
C           -2.67495335086400        1.13184450662704        1.29963224402060
O           -2.16115066365608        1.45229601731612        2.56140711896560
C            1.38833930268894        0.69295028083578        1.77133285526445
O            0.75701550850640        1.73810914612097        2.46751336794507
C            2.90291496617605        0.92095958850627        1.67130401985770
O            3.47461641406316        1.01759851738615        2.94523985738812
H            5.30583622120959       -1.03883905068334       -1.03601847976242
H            5.48096945005365       -1.90000900741476        0.51991785460000
H            6.64739247391921       -0.62151785123397        0.06685867971541
H            3.35982591964843       -1.17824166190790        1.29344329060305
H            1.32611418848543       -1.46640699220194        0.02477959984404
H            1.39423648164773        0.39243470697333       -2.39628653378282
H           -0.04417303191214       -0.55951106294846       -1.94683705254443
H            2.47099360304767       -1.62663487321003       -2.62414842814747
H            0.83979207064185        1.55253954322476       -0.13337633391673
H           -1.14779195653931        2.17848889338837        0.17334883127963
H           -2.00763105213621       -1.13553825669049       -0.95656624765947
H           -4.64004669155486        0.93306773411350       -2.55700054776653
H           -3.80081529450358       -1.32138789162654       -2.77068636436907
H           -3.19962217271768        1.46444154158853       -3.01429158524245
H           -4.66676162917007        0.28126238412195       -0.36390647347444
H           -3.90240685173055       -2.42602934330625       -0.30464540807416
H           -2.60856367601464       -1.01613148848128        1.48871791573558
H           -4.99432103072227       -1.01774937638005        1.94500758917861
H           -3.43253520716579        1.89365053293324        1.07442583558519
H           -1.21386505154291        1.23317020651798        2.59835128734739
H            1.20337013122126       -0.26079437882530        2.29575410248308
H            1.33742199281845        2.02444549180434        3.19251820224187
H            3.10308029223339        1.87910589261515        1.18049909079420
H            3.54290603987750        0.14459052708391        3.35989355362647
