48
 energy: -84.738950817574 gnorm: 0.000480154950 xtb: 6.7.1 (edcfbbe)
C            5.55526108862994       -0.63402698673688       -0.34524057753016
O            4.75569280656924        0.31332913086393        0.35400832634966
C            3.48279010936295       -0.13713735869065        0.67362936440230
O            2.73700859324403       -0.28384422855867       -0.50065434557567
C            1.35862446392783       -0.74498939527367       -0.24867260474960
C            0.59051189495838       -1.16491358379365       -1.46026559296938
O            0.27617959825389        0.05042104725280       -2.34885425105708
C            0.69933829455851        0.40767062866874        0.52085904639289
O           -0.68139274463670        0.15302400048960        0.68514753538203
C           -1.54748889525265        1.18714941764372        0.31187341918991
O           -2.06192276657915        0.92322547373794       -0.97074899520034
C           -2.78178294874177       -0.31272313623586       -1.05681189870359
C           -3.35434836331063       -0.40487319294729       -2.47172799888605
O           -4.20892185239324        0.69559975259313       -2.69663169345127
C           -3.91405629586026       -0.41364797950524       -0.01568110614422
O           -4.50537903401420       -1.68374996822601       -0.06404667504288
C           -3.40056079731183       -0.07026150036309        1.39077328079370
O           -4.49731795278204       -0.03894201310357        2.26900558935283
C           -2.68199486140659        1.28470482084449        1.34499488324280
O           -2.16483519483269        1.58316376386305        2.62370310713143
C            1.38139845110606        0.57147389820090        1.88579674128809
O            0.79540381509488        1.60919366030772        2.63061276348739
C            2.86641958853484        0.88924369905552        1.65516826716368
O            3.59900594935103        0.95398008290676        2.84435811600097
H            5.08392407778868       -0.90987595818408       -1.29066400274535
H            5.70361477489034       -1.52976154934991        0.26568444455416
H            6.50371868877828       -0.13623519641157       -0.52273689239606
H            3.53994919874879       -1.12716340581706        1.18523346094443
H            1.42915027774297       -1.63206668631731        0.39708222748351
H            1.26243579180500       -1.76327832450098       -2.09597106675961
H            1.03157916927339        0.66626256321694       -2.44585585251434
H           -0.50722585812663        0.50630708524014       -1.94185919456941
H            0.85420142204232        1.34184880786503       -0.03453772152743
H           -1.02574207026211        2.14948587697204        0.23154557760355
H           -2.07069634237046       -1.13783385042807       -0.90031174972051
H           -2.52825572325545       -0.40813883410258       -3.19109385134951
H           -3.90524334320949       -1.34921013874593       -2.53913554714939
H           -4.60903247370264        0.60639781330338       -3.57194545960929
H           -4.71115387109152        0.29075043324179       -0.27753848868808
H           -3.88468068373589       -2.34514554325803        0.27663000705842
H           -2.67047432357271       -0.83054698330392        1.70812281308191
H           -4.17886188346903        0.19297815873668        3.15435325720932
H           -3.39507711787661        2.04422223748910        1.00763007002573
H           -2.18426341877459        2.53850443809128        2.77745957948486
H            1.29872457985756       -0.38090294540574        2.43516147392631
H           -0.14743288220690        1.39174485691994        2.77179539268011
H            2.96086456144639        1.88440470293780        1.20905947957200
H            3.49008151566451        0.13512241724848        3.35061846994943
