48
 energy: -84.849224351418 gnorm: 0.000700941208 xtb: 6.7.1 (edcfbbe)
C            5.59085231418288       -0.97557502645551        0.01732773484085
O            4.88120282564164        0.08864693620707        0.64821859187340
C            3.52137380089249       -0.12721531135261        0.77630429226325
O            2.92769685239365       -0.13927869815736       -0.50331357047933
C            1.53661782633949       -0.38281750093948       -0.48501486901506
C            1.08052120359411       -0.44234042914016       -1.94451278653056
O            1.28969989103416       -1.74814917572023       -2.42464529489968
C            0.79994610627001        0.71330976682523        0.30701815242600
O           -0.56075993146251        0.35124717450781        0.47126421564904
C           -1.54744060598028        1.29662216052835        0.13201453256509
O           -2.08606231806151        1.02655859982469       -1.13108831572404
C           -2.73739729961699       -0.24245008890110       -1.21847384733725
C           -3.28511934053717       -0.36899708296684       -2.64517155793345
O           -4.53152937966726        0.28093942201223       -2.74339263671202
C           -3.84911683823062       -0.39441111486150       -0.16074937186593
O           -4.37554642013666       -1.69845382505463       -0.18588001508748
C           -3.27221581678269       -0.12214965952913        1.24047219115132
O           -4.23180778134178       -0.26071447028942        2.25086540563425
C           -2.63683940937709        1.28218378081178        1.21623052439563
O           -2.14474671113314        1.69580709108280        2.45840626044814
C            1.42405859424134        0.84411245270590        1.70578918089742
O            0.81021512302911        1.92324534833941        2.36232046729805
C            2.94115675669769        1.02273379530760        1.61269091371152
O            3.44711081168180        1.03121593365500        2.92020026868863
H            5.20880875063937       -1.14338239730653       -0.99010502306614
H            5.49521730459537       -1.89262689007436        0.60528874382800
H            6.62660655717909       -0.65151107159795       -0.01566302810569
H            3.31805591303510       -1.09532264837972        1.28232978578350
H            1.32855350926157       -1.35375366591159       -0.01052742782465
H            1.67558211879456        0.28738205980233       -2.50462960298903
H            0.01917506347690       -0.17224134348809       -1.99840928850268
H            1.15944386578923       -1.76503080920336       -3.38366271113963
H            0.88614675982444        1.67135586126464       -0.21784642842955
H           -1.11390960620146        2.30212811395767        0.05619897304393
H           -1.99846827270525       -1.03712658671790       -1.04253573678178
H           -2.55003742858592        0.08869426919986       -3.31489271168442
H           -3.38750814583300       -1.43420838097488       -2.88578940071050
H           -4.77081152332285        0.37325854050859       -3.67559268576544
H           -4.62953985831312        0.34961227676266       -0.36800445210375
H           -5.05192194086926       -1.75708798433907       -0.87495870169627
H           -2.50759390260786       -0.87187088696433        1.46584203564656
H           -4.91196241948056        0.42214247121513        2.15483906780752
H           -3.40783846414628        2.01151455689378        0.93347318756546
H           -1.21811130764351        1.41902099878686        2.55360641527029
H            1.22437789748586       -0.08936837450424        2.25654546633427
H            1.30959287638967        2.10985216584355        3.17374182962448
H            3.17256280218508        1.96381026948503        1.09274848219787
H            4.41315620342486        1.09976136713837        2.88952781573261
