48
 energy: -84.857812140931 gnorm: 0.000839152344 xtb: 6.7.1 (edcfbbe)
C            5.56532763227877       -1.05712753182493        0.15535945919285
O            4.84993697437533        0.00608324821440        0.77968782733298
C            3.48094367126086       -0.18157795399557        0.84632154402555
O            2.94693804469482       -0.19622989466747       -0.45768933835006
C            1.54618236915718       -0.36941612010109       -0.52174396563621
C            1.16519906628421       -0.27009935471034       -2.00312042657390
O            1.39911896223976        1.04882201912562       -2.43937129876235
C            0.79380561575167        0.69170846967017        0.29957533567618
O           -0.56582860805913        0.30835617905429        0.43669771277848
C           -1.54655500540794        1.26144476784220        0.11573541950673
O           -2.07193824909100        1.03631591303266       -1.16265966030632
C           -2.69662560528831       -0.23842264236265       -1.29400661389027
C           -3.13436489800712       -0.40493774121153       -2.74577339869106
O           -2.00708508201506       -0.74482303371608       -3.52084196188414
C           -3.87258491658348       -0.36347917381701       -0.31669038211675
O           -4.45016272783562       -1.63286873219939       -0.46621309314495
C           -3.35318851553547       -0.14389231747763        1.10969937647996
O           -4.44735174415794       -0.21292594442392        1.99207999745412
C           -2.64961870685331        1.21846849124953        1.18301226579465
O           -2.16219495369752        1.45390883301209        2.47930128396607
C            1.37795299344762        0.79888949417718        1.71459626360499
O            0.73640610199155        1.86297950937564        2.37398236909765
C            2.89253349079730        0.98331396462009        1.65507014244494
O            3.37533941719027        1.00929045741783        2.97113201752160
H            5.25177091035163       -1.16844859506923       -0.88293589871217
H            5.39719398439606       -1.99279200870949        0.69594344849553
H            6.61121793891097       -0.77033220575619        0.20864608211018
H            3.23859159522776       -1.14356430245185        1.35012496469227
H            1.27200645739904       -1.36271092291301       -0.13362969210498
H            1.79128665700117       -0.97743315492079       -2.55904544093843
H            0.10998261411548       -0.53760349352765       -2.12435346956260
H            1.15672344953856        1.11493507898965       -3.37349163873601
H            0.88127491219820        1.65806045335432       -0.20717721689101
H           -1.11023251700564        2.26795767746363        0.07225433862530
H           -1.97021743448634       -1.02869067985760       -1.05872487401043
H           -3.57180037857164        0.54162055226936       -3.08315661226871
H           -3.88514793475466       -1.20225264082685       -2.77639944210171
H           -2.28311930759812       -0.86440729863372       -4.44120389548574
H           -4.61321404571854        0.42174026441834       -0.53938684027770
H           -5.07675566498093       -1.76364683310291        0.26284223874939
H           -2.62059069501766       -0.93010269430228        1.35054627312207
H           -4.16457641884786        0.13464730017089        2.85147133642235
H           -3.38487541449843        2.00167826110256        0.94720447426972
H           -1.18764753137805        1.49316912880176        2.47369591648395
H            1.16729627271976       -0.14322651688850        2.24622074096561
H            1.22622777641582        2.04960405377041        3.19165407996987
H            3.13408902118554        1.91485626548733        1.12306103540976
H            4.34272042858037        1.06227438140392        2.95465927709624
