48
 energy: -84.848378339513 gnorm: 0.000943205309 xtb: 6.7.1 (edcfbbe)
C            5.59251775695745       -1.03939377761632       -0.02611979434726
O            4.88990730821351        0.02631151062248        0.60885410146298
C            3.54105810264419       -0.21002252650464        0.78556908557034
O            2.91909246297755       -0.20822965393067       -0.48158421289736
C            1.52963873103068       -0.44573059246025       -0.44924094784838
C            1.06430481377956       -0.50805612684064       -1.91304006717928
O            1.53451722743944       -1.63527384107576       -2.59758705619782
C            0.79712637661567        0.66832735161560        0.32680729087429
O           -0.56594745495081        0.29487128126513        0.48987275733292
C           -1.55067490679913        1.22654885443070        0.13654266798410
O           -2.08205896271231        0.94114223635728       -1.13389173241249
C           -2.72847738602893       -0.32650653000828       -1.21465433754337
C           -3.20205349673451       -0.49703841178074       -2.66678994562259
O           -3.59872472717100       -1.81017748991961       -2.95004457082210
C           -3.90062229382806       -0.41330205840316       -0.21506536709766
O           -4.57725920292343       -1.64158814322327       -0.30480517488229
C           -3.36495156376153       -0.13445466782992        1.19498859213953
O           -4.35145293831044       -0.20744299706425        2.19189789381587
C           -2.67434837495847        1.23750727371702        1.19014177833330
O           -2.14204809229980        1.57110250038149        2.43870798941204
C            1.43311984495042        0.84243073814297        1.72019955972129
O            0.93821914512290        1.95593344568234        2.41620799174622
C            2.97084649599266        0.90834611905832        1.66380078963214
O            3.50968113094264        0.77088637717842        2.95046237556070
H            5.17978734618523       -1.23034486483208       -1.01830039693413
H            5.53364441108023       -1.94581031226725        0.58304744095374
H            6.62151553837822       -0.70104676322854       -0.10030443168324
H            3.36890568972713       -1.18764713694274        1.28335257774633
H            1.32692298295354       -1.40191941621412        0.05951019913324
H            1.48571429648756        0.35188646117659       -2.43763682494792
H           -0.02843023856891       -0.44840205982722       -1.94368585800982
H            1.14265398215913       -2.43959829593456       -2.22786180667771
H            0.87286671342420        1.60468725901414       -0.23941190036448
H           -1.12853419059289        2.23395180053807        0.04959988116336
H           -2.00809922236300       -1.12246064109333       -0.97558458094844
H           -4.01182119884767        0.21657611983303       -2.86320415835018
H           -2.36989203518444       -0.26732569831394       -3.33597953283367
H           -4.32569633941059       -2.04719040862409       -2.34804382160700
H           -4.64157176632240        0.35179750496344       -0.48092943634035
H           -4.09203876449279       -2.32497427309752        0.18072143736050
H           -2.61635786930272       -0.88810017830678        1.46704455047241
H           -5.13480273317304        0.29694179371751        1.92603267443132
H           -3.40064661318845        2.00636817147744        0.87250218901541
H           -2.71253611887379        1.19137616632608        3.12846193664370
H            1.14257569652199       -0.02189780086255        2.32833579666947
H            1.12218996029406        2.76808526886922        1.92203901361588
H            3.28820687405003        1.86143206074747        1.21111942914889
H            3.03357160540719        1.37237437132121        3.54772699639802
