48
 energy: -84.853464062044 gnorm: 0.000514545666 xtb: 6.7.1 (edcfbbe)
C            5.70529136173436       -0.80414861527668        0.00616963625453
O            4.89544695305501        0.19923069688605        0.61115982953226
C            3.56608675031385       -0.13936884284340        0.76375875409763
O            2.94739324020713       -0.11679093539961       -0.50719042418190
C            1.55759293626431       -0.39361057661563       -0.49948597844706
C            1.11738851916729       -0.40406475392574       -1.97111996166857
O            1.60728617171902       -1.52384869984631       -2.65616913315636
C            0.80934919804412        0.66978004122831        0.32081046792888
O           -0.55996387449932        0.32039846329065        0.46268051292230
C           -1.53026363808638        1.28841951833129        0.14800317442103
O           -2.06966910715315        1.07803251434332       -1.12591082498153
C           -2.72117036840443       -0.18234780349944       -1.26670582318473
C           -3.19482084537611       -0.29944821673241       -2.71198850902128
O           -2.07358027811481       -0.54363822328489       -3.52784625044166
C           -3.87769346875440       -0.31543986371498       -0.26788613170274
O           -4.45723235499937       -1.58297969251145       -0.42419977879718
C           -3.33558553372412       -0.11139378721357        1.15310630304113
O           -4.41711198287918       -0.17926574562610        2.05139879672447
C           -2.63132892554662        1.25123491811232        1.22119885863015
O           -2.14797936940932        1.52904423630499        2.50690952633005
C            1.40951233319622        0.71282114015600        1.73949970121712
O            0.79368567243415        1.68619599690405        2.54475972274603
C            2.93345501150167        0.88574079277838        1.71500252875993
O            3.48169068051077        0.67057203663150        2.98680337288298
H            5.39639563515922       -0.97752780626674       -1.02557217923002
H            5.64371997717999       -1.73594829269517        0.57484193459404
H            6.71748881929673       -0.41176392635673        0.03585459563469
H            3.45851287525868       -1.15038960618585        1.20829924875097
H            1.37094843478593       -1.38173808938419       -0.05325761585595
H            1.46476122835270        0.52492358610687       -2.43901638152570
H            0.03041890064833       -0.45151404262578       -2.04222617354697
H            2.57441883737741       -1.48668986323812       -2.65713553745517
H            0.91223996728634        1.64225803282847       -0.17473143692656
H           -1.08702275652617        2.29150881541077        0.10238974275050
H           -2.00379422065894       -0.99114594861379       -1.07152050331862
H           -3.68640887612666        0.64007755638593       -2.99068958979141
H           -3.90936498512724       -1.12862641770458       -2.76072880876119
H           -2.35965698010857       -0.63548061021222       -4.44767936249830
H           -4.62268265052563        0.47167461487882       -0.46819640719662
H           -5.08116366530304       -1.71929519374152        0.30580753380694
H           -2.60574994107045       -0.90560195618147        1.37534042061744
H           -4.13411268272512        0.19772754683010        2.89868399373730
H           -3.36628269766676        2.03167082202598        0.98788783539328
H           -1.23326887902511        1.20882263551801        2.60151747841502
H            1.17920315460141       -0.24307661673966        2.22503341553892
H            0.99546605862992        2.57477208662898        2.21394095028993
H            3.20011971131438        1.88584150027723        1.33879595157300
H            3.00330666107481        1.21468155301087        3.63384961539212
