48
 energy: -84.734630150319 gnorm: 0.000422837332 xtb: 6.7.1 (edcfbbe)
C            5.50679858924728       -0.91463862644949       -0.17036613683161
O            4.75899048677668        0.10932960567777        0.47435307526898
C            3.43192864464389       -0.22190890522141        0.72277532553846
O            2.73950184956538       -0.27771370756431       -0.48545480123082
C            1.30042658542605       -0.59501809599389       -0.33144891292016
C            0.58470793914750       -0.86219141966430       -1.62681638953322
O            0.67930629373336        0.31558694017435       -2.49723861030848
C            0.68972834430966        0.57623772008828        0.45334871890704
O           -0.69402778906428        0.34333760950619        0.61473638717030
C           -1.59780414627217        1.36143209826261        0.28286216928647
O           -2.16095124648381        1.17906370843354       -0.98776209878327
C           -2.62142833531123       -0.15092703566452       -1.16455592878436
C           -3.05796466398224       -0.31885430800505       -2.61561057712081
O           -3.42923685396370       -1.68974789642276       -2.85426187868289
C           -3.78812839988666       -0.41936730841997       -0.20024432788140
O           -4.20195753450073       -1.75360278458770       -0.39690068980757
C           -3.34142693754548       -0.14840713190985        1.24172016711402
O           -4.47096566242754       -0.28052659361902        2.07492946389645
C           -2.72821561080227        1.26496737735799        1.33450030344684
O           -2.27823639421119        1.54422702628152        2.63452247942289
C            1.35353445894412        0.68087328432460        1.82661543969993
O            0.80244077253607        1.70402261018460        2.62528525948431
C            2.86926270232984        0.84335097762931        1.67706250074328
O            3.51983727510725        0.69933083204627        2.91093427357717
H            5.04964698820226       -1.17667142915572       -1.12725362577184
H            5.55723272444211       -1.80205409316717        0.46777740043841
H            6.49724030094711       -0.49616901910110       -0.32170232967947
H            3.36946485210220       -1.21097508436202        1.23225287161404
H            1.24690473796193       -1.50535191781736        0.28917340550228
H            1.19483516985525       -1.67445744705433       -2.13595425920324
H            1.60527452414366        0.57404726977637       -2.60377479590239
H           -2.22646225775253       -0.03327426555760       -3.25795004221273
H            0.85559177883457        1.49293487495743       -0.12818346380259
H           -1.13600566419457        2.35392014674305        0.27330430357882
H           -1.77068657676785       -0.82821335395919       -0.96693428120513
H           -3.92843208583958        0.29898471236925       -2.83646548635940
H           -3.92731601362217       -1.98540500578634       -2.01277327312486
H           -2.61786734834142       -2.23706977079274       -2.93797863506048
H           -4.61518563592414        0.27213349428748       -0.42139459677953
H           -4.87649682812365       -1.98194217845114        0.25905999009895
H           -2.56718259376804       -0.87739778626005        1.52468204466214
H           -4.26381831904116        0.10036692817818        2.93967381000176
H           -3.49773046104157        2.01027536272914        1.10462247570579
H           -1.37066829784923        1.21535007722156        2.74064701911269
H            1.15356650058127       -0.24657076629436        2.37596125848916
H            0.97168346193588        2.56784690106210        2.22048056936280
H            3.10020901989510        1.82462212117069        1.22940476660670
H            3.05750065841693        1.24538628001011        3.56958867819310
