48
 energy: -84.852277634775 gnorm: 0.000921798720 xtb: 6.7.1 (edcfbbe)
C            5.69396144341117       -0.73277538168568       -0.15190178532081
O            4.91220151242680        0.23991658992420        0.53682357080867
C            3.59989130964067       -0.13011818035622        0.75231732532288
O            2.93187803905248       -0.13832725114538       -0.49467786929964
C            1.54990934576032       -0.42017011264712       -0.41656631330435
C            1.00883305777192       -0.50286169740667       -1.86058869341870
O            0.34948147955334       -1.71278566200861       -2.13413053150265
C            0.83532552192722        0.66744068717773        0.40628740262289
O           -0.53514244953839        0.32456207592769        0.52328937345310
C           -1.49547965249892        1.29773109693746        0.19902508214086
O           -1.99800354701370        1.08395919420099       -1.09213726807315
C           -2.57901958107603       -0.21019544592610       -1.25736723814684
C           -3.01648911861517       -0.34940864068688       -2.71725231828127
O           -1.94047557046276       -0.45550654735078       -3.61239215835258
C           -3.76222653329350       -0.39583048953220       -0.28518035045398
O           -4.38085785233888       -1.64352572609824       -0.44491932145998
C           -3.26858367956790       -0.16739246787093        1.15890230712860
O           -4.27690293544519       -0.36955740729743        2.11142734303916
C           -2.63438503774705        1.23548196699427        1.23729397858306
O           -2.19595168807212        1.58753520989380        2.51705360679797
C            1.45938342210608        0.70552221300473        1.81183554589713
O            0.87619613895752        1.67608552633610        2.64182409945949
C            2.98433705643244        0.88036990128651        1.73156295807863
O            3.57704690276391        0.65736561522737        2.98208589118287
H            5.28098470689090       -0.92161847587927       -1.14413015386513
H            5.73037847623902       -1.66339704902079        0.42127684164080
H            6.68671807196639       -0.30019389213387       -0.23081822114229
H            3.53959529584284       -1.14120283575461        1.20695911500320
H            1.38790005377631       -1.38417429327347        0.09034032980023
H            1.85109502174861       -0.34024852052930       -2.53911313222407
H            0.27040471589690        0.28364469832939       -2.03011832738776
H            0.99490676110581       -2.42911443179102       -2.22097244019626
H            0.95706848975942        1.63504040266363       -0.09455221641353
H           -1.06044171346557        2.30390951773545        0.17985514135958
H           -1.81488716453773       -0.97085182730238       -1.03914473623285
H           -3.56722757554777        0.54547457676712       -3.01347488287788
H           -3.67714636086225       -1.22333651399144       -2.78960865795295
H           -1.33646408959073       -1.15254654687388       -3.30409038559327
H           -4.53424967090294        0.34418369763031       -0.52865870886423
H           -3.82852297662828       -2.33749129967369       -0.05616354977469
H           -2.49921394460384       -0.91024593912560        1.40137983416441
H           -4.98277142124523        0.28198805541579        1.99515198611209
H           -3.38237807593223        1.98824770709643        0.96315657085091
H           -1.40038524268766        1.08152349029314        2.74673044965301
H            1.24554098804611       -0.25062862095273        2.30404154352504
H            1.04569539151578        2.56440983746184        2.29476929896149
H            3.23126896459066        1.88635448558084        1.35729708001596
H            3.10938372648965        1.18514870983083        3.65028066935681
