48
 energy: -84.859207099805 gnorm: 0.000324719834 xtb: 6.7.1 (edcfbbe)
C            5.57786010426692       -1.00905861423175       -0.01903837698927
O            4.86121645762286        0.07525273152585        0.56754926374905
C            3.50788717968459       -0.15270134924066        0.73752073699142
O            2.88798355647171       -0.19680262764625       -0.52893457358437
C            1.49650521538745       -0.44154192695115       -0.47040056692551
C            1.00485083682022       -0.47696883059337       -1.92525398164848
O            1.26253522194400        0.72326031764817       -2.60077841391200
C            0.78270242108651        0.65565125056897        0.33249848539071
O           -0.57086810945694        0.27672962784495        0.54728437160207
C           -1.56369470020894        1.21530916257482        0.23514341067118
O           -2.15538217115844        0.95649312676311       -1.00653480672653
C           -2.83380009782441       -0.29338635501318       -1.08435285773850
C           -3.40849031444220       -0.35807237140669       -2.50252935310620
O           -4.03138813210299       -1.60660336917984       -2.69400316112129
C           -3.92457088458202       -0.41423655495800       -0.00793026579352
O           -4.48975377836812       -1.70042322632055        0.03590812318489
C           -3.31371463704347       -0.14515339761454        1.37452303762307
O           -4.29474448320916       -0.11497950019771        2.38191245657488
C           -2.60914092873564        1.21059103406558        1.36176754542286
O           -1.94912119188324        1.48422201710360        2.56830064332710
C            1.43061173356271        0.87414105271295        1.71512222573398
O            0.94345887425855        2.05148556636270        2.30656666996121
C            2.95294807262351        0.99067178216596        1.60571553156356
O            3.49247892107828        0.91814182497904        2.89723507104717
H            5.19688670200726       -1.22601288121990       -1.01753455504823
H            5.49549492389619       -1.89994423661063        0.60974162096567
H            6.61031650546039       -0.67681214894330       -0.07122140580831
H            3.32891451270520       -1.11683106457730        1.25986070415286
H            1.30155130462131       -1.41036865897838        0.01370688828468
H            1.48339483607257       -1.32119311715615       -2.43617658047580
H           -0.07694986128006       -0.61071992903066       -1.93334841820987
H            2.21657194352878        0.88929116407515       -2.56939047858203
H            0.83313924943781        1.59333976497802       -0.23446599681122
H           -1.13471650135459        2.22035119950752        0.13803156893410
H           -2.12284968399512       -1.11904700394127       -0.93204925012284
H           -4.12358435117174        0.46524024286325       -2.62056028500289
H           -2.58154411071015       -0.20713693001123       -3.20499734741579
H           -4.33559094963293       -1.67805918456030       -3.61028561637003
H           -4.70548145048498        0.34152839501411       -0.19786733273532
H           -4.64720727890212       -2.00348812570461       -0.87550998654560
H           -2.56983688436744       -0.92821456967148        1.58636941928372
H           -4.82643692123822       -0.92164899533448        2.30987663659364
H           -3.35363519918177        1.99235165659376        1.14652695125055
H           -2.56335525842766        1.29022249192706        3.29482984430748
H            1.19982338532772        0.00396718645337        2.34665712666958
H            0.00557526384136        1.92673873884974        2.53932389546942
H            3.19907883819080        1.94663122086856        1.12487109818385
H            4.44320082748220        1.10235041643615        2.85483533726400
