48
 energy: -84.738763772108 gnorm: 0.000585144425 xtb: 6.7.1 (edcfbbe)
C            5.57950313113548       -0.97004178149659        0.03144318087820
O            4.86602040269939        0.06818115269071        0.69929418493061
C            3.50463778197715       -0.15220824874638        0.81664844341522
O            2.92857196955292       -0.18098418522449       -0.46651151013723
C            1.53499358073717       -0.40445210403446       -0.46174587505322
C            1.07944250408612       -0.40333661456271       -1.92529585793075
O            1.24314488645193        0.89026085751658       -2.45525549243095
C            0.79938876472146        0.67624120661806        0.34357715537070
O           -0.55356386997839        0.28231778128501        0.52218122213249
C           -1.54884674522514        1.21613374762695        0.19791213450315
O           -2.10704355013659        0.96797624643539       -1.05307390218364
C           -2.70338066288398       -0.34037844469248       -1.17206202218627
C           -2.94031221020718       -0.60991622973800       -2.64059069644805
O           -3.89569242056064        0.47905851412164       -3.17436764030825
C           -3.89664206005475       -0.39121734584995       -0.17002749580726
O           -4.55731914097890       -1.62883710986912       -0.28200595429537
C           -3.35402692350458       -0.16583486958469        1.24468097132641
O           -4.37009937895859       -0.24772933971635        2.22199259455794
C           -2.62601929751763        1.17899785584155        1.29982531181680
O           -2.00396198392617        1.40685127998551        2.53772310213297
C            1.41028483972953        0.86356614931757        1.74705032527138
O            0.89799617539262        2.02111448149492        2.35866777336669
C            2.93221666872394        0.98710509455228        1.67747830273210
O            3.44353375783968        0.91464011956352        2.98088885098911
H            5.22324080452348       -1.07765009013573       -0.99345778036312
H            5.45882621054632       -1.91565204381704        0.56754825201041
H            6.61906598874279       -0.65658818153622        0.04276087918959
H            3.30379456375262       -1.12226537846701        1.32486840948618
H            1.31404403800065       -1.38426736285310       -0.00844409784990
H            1.70030426956953       -1.12644852714767       -2.46598380805620
H            0.02768182443775       -0.70975471404319       -1.97157055826338
H            1.02522216962501        0.86471472520008       -3.39830212805199
H            0.86563345179780        1.62200292115028       -0.20509667753233
H           -1.12558728370275        2.22752682202221        0.13620645782904
H           -1.98680737770581       -1.10455998468757       -0.83887087965375
H           -4.73850204513488        0.56001477573448       -2.67907041375699
H           -3.54085445000046       -1.53363752817099       -2.69985425914653
H           -3.37370405301931        1.30258542149146       -3.08946421776278
H           -4.60862505562690        0.42606621931908       -0.39334351001118
H           -4.96236964811246       -1.84248661367740        0.57259212868580
H           -2.64349118245801       -0.96232006404451        1.49129696649176
H           -5.03573629881652        0.43964173784992        2.06265323982843
H           -3.34618885455713        1.98896307477679        1.09002226587279
H           -2.57517355444435        1.05577926228494        3.24041824930944
H            1.16879073914500       -0.02443630875730        2.35039303852558
H           -0.04633959647596        1.88284950122206        2.55412341169670
H            3.18823423696195        1.94277874380912        1.20086405558774
H            4.40267788881856        1.05365138917259        2.94888092222421
