48
 energy: -84.850397632382 gnorm: 0.000287480799 xtb: 6.7.1 (edcfbbe)
C            5.63571116074526       -0.85872791838296       -0.07561133092030
O            4.86996260618393        0.15799045492318        0.56631696046237
C            3.53986707369256       -0.16311452193750        0.74733682692738
O            2.90335415047337       -0.14472413035499       -0.51381381948295
C            1.52501374767650       -0.44973836208283       -0.47832569628127
C            1.05275464726925       -0.53583376019489       -1.93267070689292
O            1.24629037932591       -1.85468044819164       -2.38384924068190
C            0.77744284908356        0.62920789421572        0.32366801316405
O           -0.58519535311932        0.26784360419683        0.49384360976051
C           -1.57632073328533        1.21144477998783        0.16815072666401
O           -2.12900083525423        0.95231742953206       -1.09016262060060
C           -2.79806600957425       -0.30791965391652       -1.19315520197900
C           -3.43329623737054       -0.34542273144248       -2.59031861001742
O           -4.30489234241740        0.73243712558698       -2.80583736418816
C           -3.87573430651983       -0.50793850074688       -0.10655423021790
O           -4.42355366103669       -1.79516248846436       -0.20042289159864
C           -3.28877695987101       -0.21338129131877        1.28010293162261
O           -4.30451130678445       -0.29577880910502        2.24757377503278
C           -2.65488631175566        1.18624543461560        1.25954921167986
O           -2.15930120506512        1.55479273674493        2.51737154977282
C            1.39752797531520        0.71216078705311        1.73247818674417
O            0.78910343968521        1.70870976069807        2.51505341469044
C            2.92320699462952        0.87796714909466        1.69258823107578
O            3.48018903138241        0.67630496764519        2.96258440348607
H            5.22110175386991       -1.08482161380052       -1.05932297008245
H            5.65020692598733       -1.76393393476366        0.53783424340262
H            6.63715141601716       -0.44976302705764       -0.16841002266741
H            3.42881737829330       -1.16885237291634        1.20304326211010
H            1.36278492414265       -1.42656069338061        0.00077502545030
H            1.64754877931194        0.17723420869538       -2.51333617046594
H           -0.00784120959664       -0.26029426367256       -1.98670805823277
H            1.16942082274849       -1.88514351596940       -3.34795943413534
H            0.86478173094522        1.59013133191412       -0.19670289405419
H           -1.14928129907953        2.21926140272235        0.08453033281220
H           -2.05991988865839       -1.11769162386809       -1.10244216428184
H           -2.63959381078425       -0.35351662136102       -3.34664651203836
H           -4.03310477546213       -1.25282984690225       -2.67608661693872
H           -3.80327776068758        1.55362783187907       -2.69700618467266
H           -4.71016554909116        0.17713353024718       -0.29393906885771
H           -3.81382579553283       -2.44338047714845        0.18145906140702
H           -2.49757167767470       -0.95068364458356        1.50174771624329
H           -4.00952409747346        0.18711409050308        3.03625783300689
H           -3.43079967332223        1.91774728362519        1.00494053935991
H           -1.23830738293912        1.25543702406623        2.62182471837296
H            1.17035541819918       -0.22978090099658        2.24611204355137
H            1.01167215914431        2.58884602311341        2.17484446950928
H            3.19196442211124        1.87142106418287        1.30062026763161
H            3.02095739856729        1.24161223553630        3.60524552710021
