48
 energy: -84.853624132461 gnorm: 0.000471921622 xtb: 6.7.1 (edcfbbe)
C            5.61811639203720       -0.79922184456433        0.02540695416944
O            4.83910665191054        0.20714775795100        0.66789926491815
C            3.50010697188838       -0.10151816919759        0.82028855108645
O            2.88510573719654       -0.16947831605328       -0.44975729279204
C            1.49821872019486       -0.44421521383943       -0.40422641999135
C            0.99193224751256       -0.52467836535413       -1.85905612287718
O            0.71624502135238       -1.83441055256917       -2.27534026846285
C            0.74988059354483        0.63636887278657        0.39804113303927
O           -0.60701802915116        0.25202651542904        0.52796973239476
C           -1.59740401850851        1.19325575134806        0.18993524913909
O           -2.10121541913628        0.94624586792658       -1.09391167347496
C           -2.68902259713404       -0.34963340023665       -1.23662490475358
C           -3.15082887427780       -0.49673220811671       -2.70414916510198
O           -4.51819672795993       -0.26874848976192       -2.91432068261036
C           -3.84668172913496       -0.52331313267610       -0.23522545300717
O           -4.48484472234608       -1.76399383696649       -0.39802356045018
C           -3.31829445535136       -0.30143378213797        1.19412763791599
O           -4.30020335819895       -0.52442082468496        2.16882980194983
C           -2.71382179312573        1.11734837442343        1.24806385175835
O           -2.25644998135537        1.47971191124908        2.51949723150339
C            1.36799909273641        0.76037788216149        1.79729265463124
O            0.71403129025483        1.79694435775433        2.48171535655966
C            2.87279661305120        1.01080630669042        1.67566393984764
O            3.40792219795761        1.03030916451761        2.97121780362520
H            5.28420401742082       -0.94276594241101       -1.00235275602907
H            5.54653677345898       -1.74150574906093        0.57543003668989
H            6.63839299321615       -0.42760379022165        0.04253741543185
H            3.37382183085083       -1.07787081911789        1.33622837430228
H            1.31989476656918       -1.40933932634199        0.09546942598602
H            1.73990884460353       -0.04469932714214       -2.49850887274876
H            0.05071872627417        0.02079164365923       -1.94761147769346
H            1.54318954537340       -2.32096769201774       -2.40445769423286
H            0.83201748337242        1.60012698427960       -0.11689607023534
H           -1.18332371920383        2.20815443178483        0.15693900395814
H           -1.91764981666481       -1.10365332267456       -1.02775020438367
H           -2.62420569926645        0.25811845538080       -3.29112471248525
H           -2.86735403623526       -1.49083493259570       -3.06604245825885
H           -5.02100739140852       -0.96468692863097       -2.46318460881238
H           -4.60842666833076        0.23481015747318       -0.45610852264656
H           -3.95638714134324       -2.46377715919824        0.01085895531969
H           -2.52781234669729       -1.02814835969806        1.41473310349812
H           -4.99009323141540        0.15176903927529        2.10948759500067
H           -3.49024824341460        1.84494226737543        0.97859741802179
H           -1.32164325515907        1.23280849889736        2.61633827091668
H            1.21901743885437       -0.19123739560493        2.33254114816305
H            1.21565674063160        1.99595664744697        3.28846762346959
H            3.04679764700888        1.96699837838245        1.16085139688309
H            4.36567592937650        1.16818862112414        2.92038505997888
