48
 energy: -84.734972255129 gnorm: 0.000778193947 xtb: 6.7.1 (edcfbbe)
C            5.66993276842423       -1.10300016057582        0.17466011680003
O            4.95589788181586       -0.04018003943478        0.80332934099566
C            3.58225462480329       -0.22326696649531        0.84642046192101
O            3.07413468023151       -0.23559602385262       -0.45823270619143
C            1.68767532257786       -0.52048626196443       -0.54874849484457
C            1.47797036106448       -0.58474140770606       -2.06079157109029
O           -0.01023720457819       -0.80758394065395       -2.37042067435975
C            0.88958571821843        0.55468254611403        0.24787308535307
O           -0.46299282169842        0.12796375719074        0.46262568515483
C           -1.48045828823437        1.02843462736644        0.13237915451165
O           -2.04477464565703        0.69912714137918       -1.11383067385403
C           -2.91664894566353       -0.44142806152064       -1.13965279849845
C           -3.51239039024283       -0.46472389377290       -2.55346032325505
O           -4.19926478715968       -1.68253213392714       -2.72833292300618
C           -4.00829788638575       -0.39268062084611       -0.05863724667688
O           -4.75145740915065       -1.58086056024809       -0.02294138361479
C           -3.33778133175063       -0.19677126153496        1.30508737129273
O           -4.23401594143048       -0.16065258260899        2.38566668337331
C           -2.52692506161130        1.10405094529667        1.25101658961048
O           -1.86561270167911        1.35682785032005        2.46162959546574
C            1.46706485813590        0.83454670951581        1.65336105361876
O            0.94352477923175        2.03937890795069        2.16364024649738
C            2.99081631787405        0.94232684742632        1.65349866267446
O            3.43508455623435        0.90792684369771        2.98300219808801
H            5.33149215470096       -1.22847678165639       -0.85447905631651
H            5.52245425206260       -2.03349889250571        0.73038470786066
H            6.71319627054403       -0.80348128345052        0.20274982618192
H            3.33011792600484       -1.18269802536922        1.35254731716437
H            1.48390918803995       -1.49360950203630       -0.06294464394417
H            1.64943487537332        0.44152915808534       -2.43941925555729
H           -0.63001530783120       -0.21788291760471       -1.87070318497377
H           -0.17717105801185       -1.74779882633205       -2.16695371648738
H            0.90947218740735        1.49710374411978       -0.31576022730244
H           -1.05912713821513        2.03320044052908       -0.01715282784780
H           -2.34953935121691       -1.36532639511344       -0.96193276709385
H           -4.18899019775613        0.39148339349134       -2.66424104322388
H           -2.69483463024358       -0.35914800381946       -3.27406199502777
H           -4.49194205871391       -1.76489682335581       -3.64645498375889
H           -4.67324697559929        0.46861311767890       -0.25295745861600
H           -4.89958108366536       -1.89227906734220       -0.93460517562082
H           -2.65634497406390       -1.03263142739813        1.50324566696828
H           -5.09546992489721        0.17430952406484        2.09986196161821
H           -3.20540816373425        1.94099948510978        1.01545189355027
H           -2.44563757920940        1.05657667369788        3.18247718905448
H            1.19396744512590       -0.00735951855007        2.30562167181180
H            0.01654487721842        1.89634208855317        2.42754908136872
H            3.28166932445235        1.88094116007580        1.16082565729589
H            4.40003049034383        1.00134440677277        2.99135695732833
