48
 energy: -84.750120350647 gnorm: 0.000480750810 xtb: 6.7.1 (edcfbbe)
C            5.48543039375284       -0.87997111823679       -0.10013597278271
O            4.80768048615202        0.07643583725497        0.71262189245553
C            3.44027230188301       -0.12196669552076        0.80279362303174
O            2.86443690710222       -0.01783914297044       -0.47017502968784
C            1.45711755201917       -0.27516688699357       -0.51906953670492
C            1.06647432710046       -0.19074435400367       -1.98729342707404
O            0.10961585199072       -1.42164552981358       -2.25891436373802
C            0.73655838046396        0.73894942962935        0.40130162758544
O           -0.62959821835072        0.36714538615462        0.53777327699092
C           -1.60312617922959        1.34602061557293        0.31034834821276
O           -2.14378638426739        1.20172466090562       -0.97661193833536
C           -2.72202198906357       -0.09394813145185       -1.16206804734288
C           -3.11330202454244       -0.24079354882510       -2.63147751730779
O           -1.97931316845932       -0.25042120810838       -3.47202294012973
C           -3.90954709813288       -0.28696077296814       -0.21367394809924
O           -4.45201620446268       -1.56043865790921       -0.43510978670685
C           -3.40758039091354       -0.12616432638923        1.22846586376320
O           -4.51373220832827       -0.22913578242688        2.09209723124221
C           -2.70060632751068        1.22977639441700        1.37657701595356
O           -2.20418511953080        1.38742405860220        2.68249942093759
C            1.34302591414980        0.74197066213261        1.80918400253483
O            0.71328754428225        1.74710617871321        2.57305657941016
C            2.85980013731368        0.94273316361696        1.74546662032506
O            3.41796151107485        0.93249614178335        3.03173329732338
H            5.10873613740593       -0.84025763782732       -1.12269068360798
H            5.34790422994435       -1.88588721289347        0.30791006572368
H            6.53225782908706       -0.59471550483594       -0.06336039085504
H            3.22153472624982       -1.13785879946915        1.21646130963986
H            1.27074244420664       -1.28574177311127       -0.11413483021282
H            0.37957862138739        0.66851574689285       -2.08636581438561
H            0.62538766898256       -2.01086308606224       -2.84659195117940
H           -0.66897677807082       -1.06883326438190       -2.79516113527167
H            0.82802927582655        1.74139482427352       -0.03231661623564
H           -1.16484742060975        2.35285742400201        0.33573632158762
H           -1.97136976390073       -0.85464162760172       -0.91008973121082
H           -3.79710749421124        0.56444989686799       -2.90837853829834
H           -3.61090001321882       -1.20354565419724       -2.75432884241329
H           -1.63897947950994        0.65289945429154       -3.55221446402677
H           -4.66409295718454        0.49282499319153       -0.40482945329027
H           -5.09837515368433       -1.73977812501636        0.26495725981886
H           -2.68036632503744       -0.92444093563914        1.44555179213423
H           -4.24277634938029        0.07108829663634        2.97205290820085
H           -3.43694113590138        2.02628082769021        1.19611904401370
H           -1.23027480997937        1.38677274139970        2.67763825107638
H            1.13252499756218       -0.24132560326935        2.26478524563946
H            1.29005145858452        1.96459695632383        3.32433849086114
H            3.08743689023644        1.92638534132655        1.32127236085313
H            3.53377242193896        0.02360729186572        3.34510424980004
