48
 energy: -84.740331675321 gnorm: 0.000735073078 xtb: 6.7.1 (edcfbbe)
C            5.53829501193927       -1.21603224481462        0.17336409989510
O            4.88620655322907       -0.07496111803084        0.72477812276629
C            3.50967295251171       -0.17722574419387        0.81539419927636
O            2.94577217590542       -0.18629903312698       -0.47681861367711
C            1.54042028457908       -0.35868534058676       -0.46833431429504
C            1.09037034670117       -0.35979899597530       -1.93647550221184
O            1.57000725200843       -1.47902542756404       -2.63023937987746
C            0.82241880423668        0.73925831771615        0.33678695007666
O           -0.51417423250295        0.31381342963323        0.54853526688505
C           -1.53970327807392        1.21841109098144        0.24011058909782
O           -2.10877068448881        0.94738890999675       -1.00524123045008
C           -2.67252652869640       -0.37227636099939       -1.13405650957306
C           -2.96224714862675       -0.59080877818517       -2.60655661576748
O           -3.83700122245833        0.58363483957075       -3.08460088458116
C           -3.83983590163965       -0.49661845359756       -0.10474675706313
O           -4.52303037328168       -1.72167901447665       -0.20917873622910
C           -3.26867341766980       -0.25566617578147        1.29735191302645
O           -4.21590565169127       -0.39552425375300        2.33348967992335
C           -2.62662449072739        1.14018366143894        1.33321118376877
O           -2.07067465147267        1.42797744632729        2.58426926665188
C            1.48120727743056        1.02147221373564        1.69538443558033
O            0.99712861897728        2.26257172784632        2.14037739514074
C            3.01158665427955        1.04667460774723        1.59424427852950
O            3.52085467508041        1.07338418540714        2.90121120222574
H            5.24655926609196       -1.35915249285918       -0.86702750162379
H            5.29224335849187       -2.11002667593404        0.75283290900924
H            6.60054286694749       -1.00101809426532        0.24137622317888
H            3.21391717265353       -1.10677662351352        1.34760128250363
H            1.29435405313411       -1.32926439786266       -0.00810241708474
H            1.43916128017598        0.56966856477079       -2.40231746281177
H            0.00178931914397       -0.40566700435282       -1.99181470636616
H            2.53720036405931       -1.44543385936259       -2.63835832417333
H            0.83622824963349        1.67409758488349       -0.23745046040640
H           -1.15164862132952        2.24243175169038        0.18727395805224
H           -1.91901918508971       -1.12239768045028       -0.84957060732918
H           -4.66114796561988        0.72032487703041       -2.56954206502622
H           -3.63830243423889       -1.46072139838513       -2.67799591499575
H           -3.24545043572083        1.35585580383203       -2.97945391233878
H           -4.60287364347530        0.26755168242726       -0.30239174307706
H           -3.90729735251250       -2.45230931076448       -0.06436209103544
H           -2.48561966327996       -0.99255290324188        1.51262558599903
H           -5.06642944472383       -0.02376198037508        2.05743841932349
H           -3.39185643010513        1.89721093623561        1.08415644963648
H           -2.63180058347730        1.01329653014025        3.26174842357857
H            1.19076116061512        0.22203515553930        2.39300598903796
H            1.36988175691565        2.44283423714712        3.01660104328743
H            3.31809311746914        1.94138459600464        1.03225218340511
H            4.48949476826602        1.06785222119845        2.86467771371900
