48
 energy: -84.847704136814 gnorm: 0.000506174123 xtb: 6.7.1 (edcfbbe)
C            5.41957015294543       -1.29584264584296        0.10524936038666
O            4.82015378982902       -0.15552928657362        0.71429810972989
C            3.44291077038380       -0.21338139893388        0.79605497524415
O            2.91142574139335       -0.11168571923960       -0.50671754090158
C            1.50628910386550       -0.21000714090867       -0.57413985014549
C            1.13324938879510       -0.03819811969605       -2.05181739428607
O            1.38845850957788        1.29533991214081       -2.43077647194751
C            0.78349889185591        0.84438508994044        0.28784393721076
O           -0.55807793486276        0.39672245652522        0.46008942236151
C           -1.59395741848953        1.29452459606374        0.18802498073721
O           -2.14716152295321        1.06237513848983       -1.08345461207231
C           -2.67780705278982       -0.25128684076723       -1.23178281313198
C           -3.12755192711419       -0.42257116282992       -2.68019738747329
O           -1.99496919819156       -0.67066808847015       -3.47979240427488
C           -3.83207284440653       -0.47427596764583       -0.24416016700689
O           -4.32469630884251       -1.77927321005960       -0.40059065672547
C           -3.31362907567683       -0.23085227808293        1.17949711408138
O           -4.32466337448155       -0.41020726325766        2.14175881102826
C           -2.69306857261755        1.16745880566354        1.26204544588956
O           -2.15120474997704        1.44134553241818        2.52213538685107
C            1.42191872066044        1.00218719961662        1.68017483514228
O            0.99148921471018        2.16660561361408        2.33904634850440
C            2.95880814087167        0.95814546048873        1.65331186311862
O            3.46460998508156        0.79956120890262        2.95148681821549
H            5.08107619447679       -1.39851401103427       -0.92709840252883
H            5.17228426471657       -2.19970512842605        0.66956542824661
H            6.48887798586746       -1.11037112515541        0.13893612966811
H            3.11088568184713       -1.16800814860688        1.25753464029666
H            1.18576156027913       -1.20411085323756       -0.22422707020592
H            1.75256480262324       -0.73061128759002       -2.63242263313181
H            0.07501360383598       -0.28341576241476       -2.19276906406716
H            1.20654166717380        1.38965387542118       -3.37615049566382
H            0.80860113372921        1.80163126567476       -0.24525928863958
H           -1.22892930087308        2.32732965221701        0.16188734253140
H           -1.89352820162962       -0.99066086425810       -1.02043374071864
H           -3.63504614351358        0.49756550645620       -2.99214303889895
H           -3.82311434269470       -1.26882573329586       -2.71362501629199
H           -2.27514201627245       -0.77882462399669       -4.40047692758677
H           -4.62875888185529        0.25719855592999       -0.46744574483197
H           -4.76360062035524       -2.04752556463850        0.42315829097504
H           -2.54300719820641       -0.97241002204554        1.41575887977378
H           -5.03540549206678        0.23463750336235        1.99955390602389
H           -3.46559614803146        1.91697791571385        1.01232266325843
H           -2.68632620546446        0.99001478225362        3.19574490339343
H            1.06339002467709        0.17425919704665        2.30265963302314
H            1.24147572360789        2.94762630242774        1.82270907759154
H            3.35548568750936        1.87603667552391        1.19112829268642
H            3.02341478025011        1.44245000469722        3.53156710246233
