48
 energy: -84.605749064748 gnorm: 0.000907342466 xtb: 6.7.1 (edcfbbe)
C            5.58614022382341       -1.10381655132718        0.06365351297840
O            4.87443421749677        0.01329531122639        0.58423370626850
C            3.52113870742284       -0.21470759201452        0.79119418159697
O            2.87665357578044       -0.22969468082031       -0.44970387511201
C            1.43503580862550       -0.44365889555499       -0.38507654993905
C            0.85464498487981       -0.60357619597557       -1.75738092407075
O            1.27190091752153        0.67908585199660       -2.53094930032058
C            0.79224267620932        0.71046645371132        0.41123214155142
O           -0.58760767443044        0.40956532181946        0.55439755492030
C           -1.51501576976322        1.39509567473345        0.21960290401899
O           -2.05340598476764        1.19820782850600       -1.05829997719379
C           -2.59722943925055       -0.08839842532903       -1.29116965877849
C           -3.72168420540713       -0.17168557380197       -2.15133529109474
O           -5.08253875769367       -2.72288452184531       -2.36413475238357
C           -3.72376774444150       -0.56371208994640       -0.22236567941924
O           -3.82149216460083       -1.93781896172054       -0.13013404580555
C           -3.24125224065929       -0.09549408024802        1.17957938441075
O           -4.30835188379365       -0.16460623878469        2.08485638296529
C           -2.69400447956763        1.33207859486778        1.20940844504750
O           -2.26562795993344        1.70002930681467        2.48681869900336
C            1.44956414447653        0.83150542952232        1.79241777201003
O            0.97761856051975        1.91538305751118        2.55501333030343
C            2.98107466221365        0.91174095388864        1.67870986814598
O            3.57558272776769        0.80003743535894        2.94419839951433
H            5.16735602291013       -1.41522914325058       -0.89558515297324
H            5.54833718417186       -1.93911457413216        0.76904692115333
H            6.60912368317930       -0.76127305616365       -0.06095540853434
H            3.35905966900878       -1.18340099966257        1.31055434703295
H            1.24224731697003       -1.37527004003675        0.16787286949896
H            1.43422476450321       -1.41385285781139       -2.24313680479767
H            2.24846172290472        0.75445170404883       -2.57674379912688
H            0.89573690400399        0.57861987306261       -3.42809037304089
H            0.91666075020337        1.64938622279692       -0.14392364999288
H           -1.07628325847300        2.39920860658553        0.21543443938816
H           -1.81698071004087       -0.85037649919004       -1.30245234667548
H           -4.13339396623683        0.83631558529708       -2.31613035569952
H           -4.76964704236688       -1.88165977699294       -2.75153683854912
H           -4.62216610093452       -3.43062756013098       -2.82810906854482
H           -4.70424070432296       -0.08025776082117       -0.38693515363899
H           -4.33518757791252       -2.31484139544265       -0.89909026233740
H           -2.42960746544787       -0.77743204872461        1.46725941837793
H           -4.61342182799022       -1.08265282722979        2.14763967647793
H           -3.47216392247664        2.02692136765745        0.85005456299861
H           -2.94194049902354        1.42386184615602        3.12652584676511
H            1.18492983384134       -0.05952791059954        2.37317176294324
H            1.08643870866435        2.74081051722800        2.06080224556742
H            3.27085698777096        1.86484951963908        1.20528087259257
H            3.06773162985402        1.35057986947433        3.56413394611621
