48
 energy: -84.746429222877 gnorm: 0.000717159977 xtb: 6.7.1 (edcfbbe)
C            5.42085395263067       -1.12924594825686        0.04001151254274
O            4.72015760645916        0.01443983152265        0.51796097849087
C            3.35489695431499       -0.17772586565919        0.69670343775850
O            2.73110388193959       -0.29852216759769       -0.54635266615319
C            1.28547244708460       -0.52607051699104       -0.49030835593278
C            0.74169237967016       -0.70817729151213       -1.87488125602664
O            1.18838549489494        0.56606454548735       -2.64485106941000
C            0.61639439650164        0.63736968433217        0.26484196478437
O           -0.73663127128715        0.29875434549661        0.52520822060312
C           -1.73248730612760        1.22461375678337        0.17937802079732
O           -2.34408527281273        0.88758345382837       -1.03429592417586
C           -2.89780049320282       -0.42483334712166       -1.03222550152087
C           -3.52339104794854       -0.61692509408190       -2.41645428507967
O           -4.07451779061586       -1.91224345625079       -2.50445863664042
C           -3.93513532445252       -0.58962942864923        0.09054039090370
O           -4.35014754561507       -1.92710373307972        0.23842191817802
C           -3.36200293805575       -0.15046132105262        1.44863353939901
O           -4.37182932013410       -0.14216298581847        2.42772320994521
C           -2.76774626785388        1.25939529684910        1.31966310048909
O           -2.20392432088605        1.73907189801601        2.50856771470930
C            1.30197149822680        0.87226223685004        1.61969280191139
O            0.71717518529123        1.99986963348942        2.22277437734059
C            2.81144989629175        1.04224223988652        1.45136639842472
O            3.37715970474197        1.16321651595319        2.73024689031197
H            5.01974915423546       -1.45284863207608       -0.92144189437241
H            5.34427079056855       -1.94815274803512        0.76121841205183
H            6.45412283007491       -0.81267781949748       -0.06636956646790
H            3.16491602748393       -1.09296814342042        1.29962463142221
H            1.09601759591988       -1.44710300120922        0.07958410045993
H            1.33671138838242       -1.52371762729653       -2.33332603783170
H            2.16417543699087        0.66019146680864       -2.61678028000392
H            0.88766042013424        0.44453109445375       -3.56722722511974
H            0.66998399937189        1.55559725674791       -0.32974099921678
H           -1.31139314372156        2.22675692745477        0.02984856849805
H           -2.09226152428793       -1.15723606917758       -0.88372283613987
H           -4.29667131705896        0.14938132621709       -2.55513678502898
H           -2.73357531085421       -0.46937524543999       -3.15726754287305
H           -4.38332203538191       -2.06784603092370       -3.40777100513126
H           -4.80460576328363        0.05423704620716       -0.12918538520319
H           -4.50029203751566       -2.29614435466276       -0.65013476155265
H           -2.55947805057128       -0.84723345357571        1.73387778211651
H           -4.80533517160590       -1.00961621099298        2.40705269236620
H           -3.57567799407870        1.95197390007335        1.05615586648567
H           -1.25673448833317        1.51560282905012        2.52517835134271
H            1.12871877973141       -0.01768659504586        2.24730740340991
H            1.24108400447680        2.23328382778061        3.00531433271357
H            3.01779553387987        1.93791672755440        0.84683225434760
H            4.34069136871673        1.21946325141105        2.64614812835086
