48
 energy: -84.749157677393 gnorm: 0.000457099144 xtb: 6.7.1 (edcfbbe)
C            5.62749405109593       -0.92387420301492        0.20629570956865
O            4.86737561090681        0.09091853578419        0.85977819125445
C            3.50858836513548       -0.16033149797028        0.91734306066783
O            2.97749651110028       -0.16646862067346       -0.38786677498741
C            1.59237747682814       -0.43921990585884       -0.44787847507692
C            1.20572933444896       -0.43891757862738       -1.93591709858015
O            1.71460468675077       -1.54353772003680       -2.63074947188025
C            0.79639050426836        0.61591883638020        0.34053514415402
O           -0.56287256040930        0.22726078153187        0.44443706659716
C           -1.54006809237092        1.17922576771305        0.09082152932796
O           -2.03278678386496        0.95729461169551       -1.19322004107510
C           -2.69322334821772       -0.30006254640193       -1.36946564943898
C           -3.05386974954758       -0.35021913023553       -2.85397057163399
O           -3.87629448109993       -1.65001128700305       -3.07360431681617
C           -3.87165934788580       -0.40992205612654       -0.36611107976788
O           -4.46493710012794       -1.68525059086473       -0.50738932242087
C           -3.36631447786636       -0.20685379014893        1.06224449512281
O           -4.46818761628518       -0.28113017945881        1.93888554061819
C           -2.65696134743870        1.14764253709086        1.14531738083293
O           -2.18677218917941        1.37302098122330        2.45033299869312
C            1.35102176656722        0.74604544136884        1.76752338364050
O            0.68000912414419        1.80934125624839        2.40092400946580
C            2.86458856369256        0.96088936051275        1.74675374144094
O            3.31210329759150        0.95774034926053        3.07543731406652
H            5.29107935052999       -1.04702829809950       -0.82372345442449
H            5.53081425443425       -1.87105681334189        0.74432132506564
H            6.65544953106031       -0.57542700413131        0.23267604376961
H            3.30758570872934       -1.14203853932859        1.39965899326550
H            1.38937346646427       -1.42464299050871        0.00170707413636
H            1.65951070857840        0.43904253771223       -2.39983397964769
H            0.11682308734470       -0.36640609869164       -2.02837643869461
H            1.25675732802495       -2.35008760683358       -2.35364209233601
H            0.88111056952471        1.58381527191171       -0.16645288274627
H           -1.09998398970308        2.18520395247269        0.05710126568785
H           -1.98768223824808       -1.10822028370612       -1.10965712568430
H           -3.82276257973775        0.43488005345797       -3.01132234023262
H           -4.33106431437748       -1.90731404388650       -2.22847042819783
H           -3.23398892329443       -2.34165731846233       -3.32742093187464
H           -4.61056493578987        0.37759864453073       -0.58613374152323
H           -5.11039848822202       -1.80358168304649        0.20580860284518
H           -2.63699410411895       -0.99606232883536        1.30585423809402
H           -4.19381694325999        0.06796709850728        2.79960791618780
H           -3.38086233213334        1.93808832114244        0.89378139937632
H           -1.21691623668226        1.47951730908584        2.44925571195552
H            1.14379533925720       -0.19206309569482        2.30602626668109
H            1.13426593643668        1.99510780535534        3.23918591582083
H            3.09624715272522        1.91519637687777        1.25150131569517
H            4.27746546005235        1.04081236941175        3.08797462490593
