48
 energy: -84.849909093145 gnorm: 0.000737763623 xtb: 6.7.1 (edcfbbe)
C            5.58307729938862       -0.93471064522938       -0.02916017988559
O            4.85282004835636        0.10763541386862        0.61175329326544
C            3.50784010437490       -0.15508089813502        0.77864372757170
O            2.89210970109308       -0.14455636976342       -0.49171243751179
C            1.49654543023241       -0.35400143719174       -0.48718351705088
C            1.05085623740867       -0.31446752752071       -1.95365407615040
O            1.21106703333211        0.99644435862296       -2.43958545959500
C            0.77471494798650        0.72835024524663        0.33243431095300
O           -0.59126870655390        0.37258477718087        0.51078306010464
C           -1.57734244838378        1.32760180367521        0.19964148610436
O           -2.14519494850063        1.08510285439895       -1.05650346749997
C           -2.81992304716160       -0.16735294127537       -1.15147262213650
C           -3.36285800852103       -0.31362012957847       -2.58310138915267
O           -4.45999119205367        0.50941394325919       -2.87637041732742
C           -3.92455752891743       -0.28795350334786       -0.09278517850086
O           -4.51394559563408       -1.55678764731068       -0.21521775477480
C           -3.32049609180965       -0.06717347595634        1.29808824826188
O           -4.35699394260207       -0.14542999851514        2.24732503260449
C           -2.64126924248653        1.30909247868831        1.30818106568452
O           -2.12215178503014        1.62857965431549        2.57008885213222
C            1.39735162400487        0.80006247006889        1.73830430267316
O            0.81618154387192        1.81392853308344        2.52005879900200
C            2.92461501691967        0.92908368395036        1.69377288126531
O            3.47769666224337        0.75054401387862        2.96958688711312
H            5.20056188075562       -1.10481626858877       -1.03679590660803
H            5.51735353202613       -1.85689167199758        0.55523974318769
H            6.61014968722675       -0.58441414257938       -0.06677764627212
H            3.35149675773080       -1.14643285300522        1.25526517590345
H            1.26027239062160       -1.33764653144188       -0.05330120285002
H            1.67299446099963       -1.02225307604647       -2.50945374670912
H           -0.00153821299783       -0.61977390193990       -2.00989374280591
H            1.19562657989519        0.98670168102520       -3.40651062212290
H            0.86815499740523        1.68461634100382       -0.19258427189620
H           -1.13932321963582        2.33028731789764        0.11518427580280
H           -2.09994971087888       -0.98009002210228       -0.97505418752264
H           -2.57259988211188       -0.01257917310481       -3.27302084834920
H           -3.60950840029627       -1.36881745914499       -2.73946116751195
H           -5.25200426859096        0.15173121082172       -2.45167943257136
H           -4.67342550661804        0.50365237992848       -0.25567031387160
H           -5.06234375100777       -1.70738539696404        0.57005868513324
H           -2.56473257799258       -0.84352834501935        1.49726741475125
H           -4.05196617440784        0.27573944261124        3.06542896065515
H           -3.39504909147013        2.07184091218532        1.07609389495554
H           -1.19226577693974        1.34785864372431        2.63665378425377
H            1.14873844742294       -0.13422937763474        2.25678570211784
H            1.03193801349754        2.68519374770920        2.15405193568843
H            3.21716843172425        1.90320119081796        1.27201522109679
H            3.01144228255610        1.32620069685293        3.59814488919948
