48
 energy: -84.859969251457 gnorm: 0.000799431157 xtb: 6.7.1 (edcfbbe)
C            5.61485471472335       -0.82540995286448       -0.04399783163889
O            4.84548262944325        0.17350077670841        0.62217738559527
C            3.50384009830288       -0.13171757015289        0.76127246528083
O            2.89786036042689       -0.16590040168011       -0.51253981379321
C            1.52158416009718       -0.48335883810234       -0.47971269862781
C            1.05178827345302       -0.59397666022496       -1.93071286832080
O            1.36605876107731       -1.88388770085603       -2.39503040118632
C            0.75507621917243        0.59181525817642        0.31038312229197
O           -0.60840347940877        0.23298066548853        0.45525647401136
C           -1.57491286838435        1.19520307051328        0.11478791541527
O           -2.10614388605336        0.96098380973411       -1.16142486586685
C           -2.79261040991373       -0.28202121546162       -1.28545801608120
C           -3.29993185633154       -0.38482817961919       -2.73026274249687
O           -3.60118517768952       -1.70271846394070       -3.09722976963607
C           -3.94161945752409       -0.38066067342164       -0.27386624039025
O           -4.55171380844296       -1.63772014149418       -0.41727293270297
C           -3.39383791445461       -0.16977554776191        1.14142615703601
O           -4.47633277522514       -0.21603378127686        2.03940530433513
C           -2.67314594104390        1.18497409493063        1.18892374310293
O           -2.17760927871748        1.43502846240760        2.47823255484680
C            1.36209833957792        0.72766986734145        1.71420894754187
O            0.70264207863395        1.77940085382149        2.37583107656228
C            2.86998274696197        0.97005732733615        1.62547096004535
O            3.37808793942133        0.96972488364976        2.93196326083664
H            5.22713064354376       -0.99834242348184       -1.04837281764506
H            5.59399844345536       -1.75892575467813        0.52507845162764
H            6.62489900649843       -0.42924001298962       -0.08752424752289
H            3.36850800670118       -1.11769277039386        1.25550923503131
H            1.37162239795415       -1.45788653067189        0.00964493094470
H            1.57503124504123        0.17441359232640       -2.51189568474736
H           -0.02805346815899       -0.41356335627457       -1.97146124945637
H            1.11247468390722       -1.96338082749071       -3.32568769803596
H            0.84480126756502        1.55080481203884       -0.21345650543328
H           -1.12507930024918        2.19476763673809        0.05469918144214
H           -2.09755147067214       -1.11232106146535       -1.09197961626889
H           -4.17299434799104        0.26991991661476       -2.85154731625907
H           -2.51272147947856       -0.03973278589140       -3.40402998492782
H           -4.19661682074706       -2.07662063669478       -2.42655073837583
H           -4.67216684346473        0.41998155548766       -0.47688236351824
H           -5.16096797072680       -1.76286727011409        0.32657549721374
H           -2.66906374540271       -0.96422854909347        1.37670485632959
H           -4.17943325723541        0.13873912014968        2.89098850462274
H           -3.39977271884400        1.97357227450227        0.94415671403041
H           -1.20254072236078        1.45172384820140        2.47230522683255
H            1.19486284443976       -0.21534354322459        2.25728827702766
H            1.18290972864838        1.96835902431113        3.19867306771823
H            3.06000091332840        1.93224388453484        1.12721614948749
H            4.33943551050963        1.08632689503122        2.90235703573923
