48
 energy: -84.852485891698 gnorm: 0.000711082545 xtb: 6.7.1 (edcfbbe)
C            5.68717066195999       -0.82544676632037       -0.00047169338125
O            4.91852686139736        0.17146755026996        0.66857142980518
C            3.57935555631804       -0.13822200037758        0.79866758361045
O            2.98227195914570       -0.06987579160302       -0.47884404305022
C            1.60102541536218       -0.36393703864762       -0.50044808578086
C            1.18067978971719       -0.36365494422729       -1.97269599031748
O            1.54101114084128       -1.60062107981382       -2.53865813484556
C            0.83457017783291        0.68641329519372        0.32130408320697
O           -0.53187515286262        0.32151431905763        0.44872270257058
C           -1.50894021554758        1.28162597641130        0.12935055734578
O           -2.02820708020038        1.06088327100454       -1.15245159806547
C           -2.68567480534371       -0.19849795723289       -1.29757888301253
C           -3.16460583578213       -0.30860496372307       -2.75348864389055
O           -2.22024527431980       -0.91828241555272       -3.59604600537429
C           -3.84389809283652       -0.33186829278446       -0.29996052346213
O           -4.41389161097564       -1.60376976856446       -0.46259532142759
C           -3.31103150310099       -0.12714766794511        1.12399395832340
O           -4.39650476010705       -0.20312357102056        2.01652820959580
C           -2.61751242282684        1.24036404498749        1.19265549644463
O           -2.14561671517434        1.52589783856589        2.48106765099564
C            1.41864456862932        0.72246117823742        1.74789476249505
O            0.79449127606188        1.69866225994321        2.54418122179404
C            2.94546979670278        0.88075163453276        1.75585060856873
O            3.46481682415106        0.64232844895950        3.03529945675278
H            5.30012685954265       -0.99353007667660       -1.00678319469292
H            5.66620793135115       -1.76090824891831        0.56567608361726
H            6.69783675930814       -0.43062778516899       -0.04039164909685
H            3.44338587457189       -1.15669534716821        1.21854224702389
H            1.41641715790673       -1.36103258040852       -0.07493201984174
H            1.70671302445329        0.46326590035860       -2.46248282338740
H            0.09877723643665       -0.20238220845416       -2.04870818556766
H            1.45991797782277       -1.54455564162423       -3.50084380725532
H            0.93357347439319        1.66361092783090       -0.16524881667600
H           -1.07305452622179        2.28800615639028        0.08526933157926
H           -1.96984937244206       -1.00608963096626       -1.08645652717036
H           -3.31420183136373        0.70248099262910       -3.13712362842149
H           -4.11300090110860       -0.85333192159160       -2.76807565717175
H           -2.23050339260152       -1.87341708219844       -3.44013254211258
H           -4.59179257657027        0.45129957324827       -0.50357918833078
H           -5.04520144890960       -1.74467651747396        0.25955503002485
H           -2.57594935833416       -0.91533833574495        1.35145541284895
H           -4.12256191768073        0.18022747312095        2.86381361339416
H           -3.35598066156423        2.01486256527138        0.95026898934641
H           -1.22345544587896        1.22845738721571        2.57976134635263
H            1.17296010018028       -0.23323380866838        2.22658521846739
H            1.01831007370867        2.58644412206782        2.22588857392949
H            3.23027759294241        1.88240786959586        1.39813409290294
H            2.99261681643503        1.19705062778550        3.67802539561334
