48
 energy: -84.720925157208 gnorm: 0.000832248048 xtb: 6.7.1 (edcfbbe)
C            5.52054601122152       -1.02296329286801       -0.04043204553556
O            4.82041990573361        0.08582402850901        0.51147009733267
C            3.47189151466328       -0.14829700562987        0.75008574998062
O            2.80293690113836       -0.32562163971940       -0.45959110864068
C            1.36747167432098       -0.63027478883606       -0.29572768337835
C            0.65146003089529       -0.90250937847476       -1.59189278785100
O            0.81696240024682        0.25266935939508       -2.47984150827858
C            0.72529247325721        0.55074652636412        0.43989178096766
O           -0.63053603925578        0.21519810840596        0.67498104549969
C           -1.60287563814435        1.15662846163972        0.31037920143873
O           -2.19263211919239        0.87013547979778       -0.92116995957089
C           -2.70468042673004       -0.45813152507165       -0.99943662619718
C           -2.97999376478084       -0.72435013153920       -2.47380186456640
O           -3.51747940925149        0.44496064338038       -3.12209989555508
C           -3.93081259184841       -0.53658664313716       -0.07721959661474
O           -4.51434402322468       -1.80497851349534       -0.19524617406866
C           -3.45157383687511       -0.24171758737905        1.35356859872878
O           -4.59071314854420       -0.22201618306408        2.18311556904364
C           -2.68067056140680        1.09077808073735        1.42834407598415
O           -2.08107478287636        1.23923089905815        2.69349594560896
C            1.41832911471083        0.87223663522071        1.76760486375089
O            0.92104941384589        2.05443125299818        2.35112892620257
C            2.92334099860830        1.05660808956960        1.53969177625312
O            3.62737371818673        1.26467920862649        2.72988047017741
H            5.07492692906357       -1.32270631801084       -0.99173194926009
H            5.49821121976138       -1.86818211002031        0.65511344066991
H            6.53865175428531       -0.67567709139337       -0.18760787487288
H            3.34790335625259       -1.07400125622513        1.36597411052776
H            1.30370864942249       -1.52702772355415        0.34563307704240
H            1.22354048158574       -1.75883202080324       -2.07925132326945
H            1.75612248292964        0.46516289445661       -2.57693092258207
H           -2.02462545098550       -0.94265519117967       -2.95284589219513
H            0.79148455278751        1.42416684917920       -0.22082158754723
H           -1.18383269172286        2.16489132156389        0.22279709952017
H           -1.93476818670955       -1.16612148013037       -0.66919363664825
H           -4.44545625901748        0.61121559206099       -2.83546925275562
H           -3.67127820304384       -1.55653722730623       -2.58607996937595
H           -2.93695996273266        1.19385200748254       -2.83740149031772
H           -4.66277675949393        0.24441520488661       -0.33733333947681
H           -5.15384541417177       -1.92085028454665        0.52226702499800
H           -2.76600924573034       -1.05010893437118        1.65610064618876
H           -4.34493456987481        0.09297150550963        3.06389083574242
H           -3.37411155083647        1.92964380993903        1.32109991253419
H           -1.50925635657555        0.46933465937695        2.83694227415010
H            1.27106247101341        0.01677254930432        2.44949727194317
H           -0.02710440405388        1.95572884342598        2.55328565791878
H            3.09127579810005        1.95709174384520        0.94082349342010
H            3.49831454042944        0.51553159631907        3.33143656411161
