48
 energy: -84.855552063572 gnorm: 0.000404819197 xtb: 6.7.1 (edcfbbe)
C            5.50127231418640       -1.00441856208323       -0.01343945789418
O            4.79780385890778        0.04540363875401        0.64759050329162
C            3.43833496627667       -0.17133302176338        0.78021969775238
O            2.84087068401467       -0.18989289925828       -0.49619022057310
C            1.44738096948561       -0.42670666392528       -0.48395452786825
C            1.00355840103836       -0.45588031041598       -1.95599621234474
O            1.51069496373503       -1.56250615494895       -2.65151991217387
C            0.71924979980757        0.67114120357898        0.31385886299676
O           -0.64533522991099        0.32977070396415        0.49496748712657
C           -1.61315238361777        1.29484102626261        0.16430895476433
O           -2.17264319153018        1.03848638710144       -1.09265166024135
C           -2.82993852737047       -0.22572340608672       -1.16662590972991
C           -3.31395708518179       -0.41700946068505       -2.60060740850768
O           -2.20846906378312       -0.77947802629000       -3.39468128398344
C           -3.97118545527545       -0.29890410622445       -0.14549952585595
O           -4.58403570559452       -1.55855275752792       -0.22949370594055
C           -3.39283385755998       -0.05517245705311        1.26234878329605
O           -4.39982428345585       -0.17427703257837        2.23654600302730
C           -2.69506143603441        1.31218263939217        1.25973854613770
O           -2.18254749577620        1.66915189095849        2.51244769361834
C            1.34701080071000        0.80083873362239        1.71169447317508
O            0.73042712476261        1.87863018223249        2.37032381547646
C            2.86233766420854        0.98156592332932        1.61535373140306
O            3.37200068629104        0.99473757744808        2.92145115465025
H            5.11327300367185       -1.14574678097321       -1.02281313011311
H            5.40759404045575       -1.93495011333295        0.55343971840408
H            6.53745249341748       -0.68160416092002       -0.04458896649240
H            3.23944142577133       -1.13794024287598        1.29262941049568
H            1.23908002028169       -1.39488729682612       -0.00130666841174
H            1.42476986353500        0.42178187762215       -2.45062065534818
H           -0.08814269675145       -0.41270031326571       -2.01656326743989
H            1.06088243444945       -2.36874450434872       -2.36244808607985
H            0.81178161775414        1.62649030293679       -0.21400438201696
H           -1.15868335617699        2.29051736857604        0.08289551408960
H           -2.11324162907575       -1.02457137929735       -0.93442658202332
H           -3.75460068560665        0.52577549746504       -2.94303622802156
H           -4.07135755782347       -1.20928890346867       -2.59582936897754
H           -2.48580551143513       -0.85208387206915       -4.31882401175060
H           -4.70600246532823        0.49173164621851       -0.37444718520199
H           -5.05620607750746       -1.71469580814226        0.60538493630035
H           -2.65805002104442       -0.83764163308467        1.48499764974962
H           -4.79347873313334        0.69103771784091        2.41653359682597
H           -3.43399312288553        2.07947386546564        0.98548245944223
H           -1.22367472162344        1.50249145117204        2.54440455928115
H            1.14888906523646       -0.13142800319804        2.26481941770055
H            1.24079964658770        2.07532902813234        3.17249211537094
H            3.09212540453451        1.92015715678967        1.09027684245435
H            4.33827904268583        1.05766000166488        2.88739153192515
