      -----------------------------------------------------------      
     |                   =====================                   |     
     |                           x T B                           |     
     |                   =====================                   |     
     |                         S. Grimme                         |     
     |          Mulliken Center for Theoretical Chemistry        |     
     |                    University of Bonn                     |     
      -----------------------------------------------------------      

   * xtb version 6.7.1 (edcfbbe) compiled by 'conda@5dfe00f5fb80' on 2026-06-10

   xtb is free software: you can redistribute it and/or modify it under
   the terms of the GNU Lesser General Public License as published by
   the Free Software Foundation, either version 3 of the License, or
   (at your option) any later version.
   
   xtb is distributed in the hope that it will be useful,
   but WITHOUT ANY WARRANTY; without even the implied warranty of
   MERCHANTABILITY or FITNESS FOR A PARTICULAR PURPOSE.  See the
   GNU Lesser General Public License for more details.
   
   Cite this work as:
   * C. Bannwarth, E. Caldeweyher, S. Ehlert, A. Hansen, P. Pracht,
     J. Seibert, S. Spicher, S. Grimme, WIREs Comput. Mol. Sci., 2020, 11,
     e01493. DOI: 10.1002/wcms.1493
   
   for GFN2-xTB:
   * C. Bannwarth, S. Ehlert and S. Grimme., J. Chem. Theory Comput., 2019,
     15, 1652-1671. DOI: 10.1021/acs.jctc.8b01176
   for GFN1-xTB:
   * S. Grimme, C. Bannwarth, P. Shushkov, J. Chem. Theory Comput., 2017,
     13, 1989-2009. DOI: 10.1021/acs.jctc.7b00118
   for GFN0-xTB:
   * P. Pracht, E. Caldeweyher, S. Ehlert, S. Grimme, ChemRxiv, 2019, preprint.
     DOI: 10.26434/chemrxiv.8326202.v1
   for GFN-FF:
   * S. Spicher and S. Grimme, Angew. Chem. Int. Ed., 2020, 59, 15665-15673.
     DOI: 10.1002/anie.202004239
   
   for ALPB and GBSA implicit solvation:
   * S. Ehlert, M. Stahn, S. Spicher, S. Grimme, J. Chem. Theory Comput.,
     2021, 17, 4250-4261. DOI: 10.1021/acs.jctc.1c00471
   
   for ddCOSMO and CPCM-X implicit solvation:
   * M. Stahn, S. Ehlert, S. Grimme, J. Phys. Chem. A,
     2023, XX, XXXX-XXXX. DOI: 10.1021/acs.jpca.3c04382
   
   for DFT-D4:
   * E. Caldeweyher, C. Bannwarth and S. Grimme, J. Chem. Phys., 2017,
     147, 034112. DOI: 10.1063/1.4993215
   * E. Caldeweyher, S. Ehlert, A. Hansen, H. Neugebauer, S. Spicher,
     C. Bannwarth and S. Grimme, J. Chem. Phys., 2019, 150, 154122.
     DOI: 10.1063/1.5090222
   * E. Caldeweyher, J.-M. Mewes, S. Ehlert and S. Grimme, Phys. Chem. Chem. Phys.
     2020, 22, 8499-8512. DOI: 10.1039/D0CP00502A
   
   for sTDA-xTB:
   * S. Grimme and C. Bannwarth, J. Chem. Phys., 2016, 145, 054103.
     DOI: 10.1063/1.4959605
   
   in the mass-spec context:
   * V. Asgeirsson, C. Bauer and S. Grimme, Chem. Sci., 2017, 8, 4879.
     DOI: 10.1039/c7sc00601b
   * J. Koopman and S. Grimme, ACS Omega 2019, 4, 12, 15120-15133.
     DOI: 10.1021/acsomega.9b02011
   
   for metadynamics refer to:
   * S. Grimme, J. Chem. Theory Comput., 2019, 155, 2847-2862
     DOI: 10.1021/acs.jctc.9b00143
   
   for SPH calculations refer to:
   * S. Spicher and S. Grimme, J. Chem. Theory Comput., 2021, 17, 1701-1714
     DOI: 10.1021/acs.jctc.0c01306
   
   for ONIOM refer to:
   * C. Plett, A. Katbashev, S. Ehlert, S. Grimme, M. Bursch,
     Phys. Chem. Chem. Phys., 2023, 25, 17860-17868. DOI: 10.1039/D3CP02178E
   
   for DIPRO refer to:
   * J. Kohn, N. Gildemeister, S. Grimme, D. Fazzi, A. Hansen,
     J. Chem. Phys., 2023, just accepted.
   
   for PTB refer to:
   * S. Grimme, M. Mueller, A. Hansen, J. Chem. Phys., 2023, 158, 124111.
     DOI: 10.1063/5.0137838
   
   with help from (in alphabetical order)
   P. Atkinson, C. Bannwarth, F. Bohle, G. Brandenburg, E. Caldeweyher
   M. Checinski, S. Dohm, S. Ehlert, S. Ehrlich, I. Gerasimov, C. Hölzer
   A. Katbashev, J. Kohn, J. Koopman, C. Lavigne, S. Lehtola, F. März, M. Müller,
   F. Musil, H. Neugebauer, J. Pisarek, C. Plett, P. Pracht, F. Pultar,
   J. Seibert, P. Shushkov, S. Spicher, M. Stahn, M. Steiner, T. Strunk,
   J. Stückrath, T. Rose, and J. Unsleber
   
 * started run on 2026/09/22 at 13:20:41.278     
   ID    Z sym.   atoms
    1    6 C      1, 3, 5, 6, 8, 10, 12, 13, 15, 17, 19, 21, 23
    2    8 O      2, 4, 7, 9, 11, 14, 16, 18, 20, 22, 24
    3    1 H      25-48
constraining angle 11 10 9 8 to  -70.0000000°, actual value:  -70.0878263°
constraining angle 10 9 8 5 to -120.0000000°, actual value: -122.0869914°

           -------------------------------------------------
          |                Calculation Setup                |
           -------------------------------------------------

          program call               : /media/aldo/Aldo/envs/chem/bin/xtb start.xyz --gfn 2 --opt normal --input c.inp
          coordinate file            : start.xyz
          omp threads                :                     1


           -------------------------------------------------
          |                 G F N 2 - x T B                 |
           -------------------------------------------------

        Reference                      10.1021/acs.jctc.8b01176
      * Hamiltonian:
        H0-scaling (s, p, d)           1.850000    2.230000    2.230000
        zeta-weighting                 0.500000
      * Dispersion:
        s8                             2.700000
        a1                             0.520000
        a2                             5.000000
        s9                             5.000000
      * Repulsion:
        kExp                           1.500000    1.000000
        rExp                           1.000000
      * Coulomb:
        alpha                          2.000000
        third order                    shell-resolved
        anisotropic                    true
        a3                             3.000000
        a5                             4.000000
        cn-shift                       1.200000
        cn-exp                         4.000000
        max-rad                        5.000000


          ...................................................
          :                      SETUP                      :
          :.................................................:
          :  # basis functions                 120          :
          :  # atomic orbitals                 120          :
          :  # shells                           72          :
          :  # electrons                       142          :
          :  max. iterations                   250          :
          :  Hamiltonian                  GFN2-xTB          :
          :  restarted?                      false          :
          :  GBSA solvation                  false          :
          :  PC potential                    false          :
          :  electronic temp.          300.0000000     K    :
          :  accuracy                    1.0000000          :
          :  -> integral cutoff          0.2500000E+02      :
          :  -> integral neglect         0.1000000E-07      :
          :  -> SCF convergence          0.1000000E-05 Eh   :
          :  -> wf. convergence          0.1000000E-03 e    :
          :  Broyden damping             0.4000000          :
          :  net charge                          0          :
          :  unpaired electrons                  0          :
          ...................................................

 iter      E             dE          RMSdq      gap      omega  full diag
   1    -85.3385477 -0.853385E+02  0.461E+00    9.58       0.0  T
   2    -85.4208840 -0.823363E-01  0.251E+00    9.24       1.0  T
   3    -85.4229502 -0.206616E-02  0.754E-01    9.22       1.0  T
   4    -85.4243571 -0.140686E-02  0.136E-01    9.13       1.0  T
   5    -85.4244847 -0.127683E-03  0.693E-02    9.16       1.0  T
   6    -85.4244977 -0.129780E-04  0.149E-02    9.18       1.0  T
   7    -85.4244994 -0.169941E-05  0.600E-03    9.17       2.4  T
   8    -85.4244997 -0.282823E-06  0.167E-03    9.17       8.6  T
   9    -85.4244997 -0.102568E-07  0.682E-04    9.17      21.2  T
  10    -85.4244997 -0.296141E-08  0.167E-04    9.17      86.5  T

   *** convergence criteria satisfied after 10 iterations ***

         #    Occupation            Energy/Eh            Energy/eV
      -------------------------------------------------------------
         1        2.0000           -0.7477028             -20.3460
       ...           ...                  ...                  ...
        65        2.0000           -0.4340890             -11.8122
        66        2.0000           -0.4318321             -11.7507
        67        2.0000           -0.4275400             -11.6340
        68        2.0000           -0.4235344             -11.5250
        69        2.0000           -0.4197022             -11.4207
        70        2.0000           -0.4130859             -11.2406
        71        2.0000           -0.4031410             -10.9700 (HOMO)
        72                         -0.0659744              -1.7953 (LUMO)
        73                         -0.0565150              -1.5379
        74                         -0.0149701              -0.4074
        75                         -0.0109293              -0.2974
        76                         -0.0047210              -0.1285
       ...                                ...                  ...
       120                          0.3214743               8.7478
      -------------------------------------------------------------
                  HL-Gap            0.3371666 Eh            9.1748 eV
             Fermi-level           -0.2345577 Eh           -6.3826 eV

 SCC (total)                   0 d,  0 h,  0 min,  0.188 sec
 SCC setup                      ...        0 min,  0.001 sec (  0.307%)
 Dispersion                     ...        0 min,  0.002 sec (  0.910%)
 classical contributions        ...        0 min,  0.000 sec (  0.187%)
 integral evaluation            ...        0 min,  0.024 sec ( 12.795%)
 iterations                     ...        0 min,  0.078 sec ( 41.328%)
 molecular gradient             ...        0 min,  0.083 sec ( 44.008%)
 printout                       ...        0 min,  0.001 sec (  0.450%)

         :::::::::::::::::::::::::::::::::::::::::::::::::::::
         ::                     SUMMARY                     ::
         :::::::::::::::::::::::::::::::::::::::::::::::::::::
         :: total energy             -84.804820633981 Eh    ::
         :: gradient norm              0.000427275936 Eh/a0 ::
         :: HOMO-LUMO gap              9.174770948808 eV    ::
         ::.................................................::
         :: SCC energy               -85.423190241780 Eh    ::
         :: -> isotropic ES            0.236323046521 Eh    ::
         :: -> anisotropic ES         -0.009932822762 Eh    ::
         :: -> anisotropic XC         -0.017108313428 Eh    ::
         :: -> dispersion             -0.048316697893 Eh    ::
         :: repulsion energy           0.618037364240 Eh    ::
         :: add. restraining           0.000332243559 Eh    ::
         :: total charge              -0.000000000000 e     ::
         :::::::::::::::::::::::::::::::::::::::::::::::::::::

      ----------------------------------------------------------- 
     |                   =====================                   |
     |                        A N C O P T                        |
     |                   =====================                   |
     |               Approximate Normal Coordinate               |
     |                Rational Function Optimizer                |
      ----------------------------------------------------------- 
      ----------------------------------------------------------- 
     |                   =====================                   |
     |                        A N C O P T                        |
     |                   =====================                   |
     |               Approximate Normal Coordinate               |
     |                Rational Function Optimizer                |
      ----------------------------------------------------------- 

          ...................................................
          :                      SETUP                      :
          :.................................................:
          :   optimization level            normal          :
          :   max. optcycles                   200          :
          :   ANC micro-cycles                  20          :
          :   degrees of freedom               138          :
          :.................................................:
          :   RF solver                   davidson          :
          :   write xtbopt.log                true          :
          :   linear?                        false          :
          :   energy convergence         0.5000000E-05 Eh   :
          :   grad. convergence          0.1000000E-02 Eh/α :
          :   maxmium RF displ.          1.0000000          :
          :   Hlow (freq-cutoff)         0.1000000E-01      :
          :   Hmax (freq-cutoff)         5.0000000          :
          :   S6 in model hess.         20.0000000          :
          ...................................................

generating ANC from exact Hessian ...
Using Lindh-Hessian (1995)
 Shifting diagonal of input Hessian by    9.5547397880537174E-003
 Lowest  eigenvalues of input Hessian
    0.000000    0.000000    0.000000    0.000000    0.000000    0.000000
    0.010000    0.010254    0.010680    0.011452    0.012203    0.013301
    0.013731    0.014283    0.015093    0.015432    0.015984    0.016762
 Highest eigenvalues
    1.543736    1.573687    1.598335    1.686933    1.709564    1.833407


........................................................................
.............................. CYCLE    1 ..............................
........................................................................

 iter      E             dE          RMSdq      gap      omega  full diag
   1    -85.4244997 -0.854245E+02  0.748E-05    9.17       0.0  T
   2    -85.4244997 -0.310081E-10  0.455E-05    9.17     317.2  T
   3    -85.4244997 -0.609646E-11  0.196E-05    9.17     735.1  T
     SCC iter.                  ...        0 min,  0.027 sec
     gradient                   ...        0 min,  0.074 sec
 * total energy  :   -84.8048206 Eh     change       -0.2001030E-09 Eh
   gradient norm :     0.0004268 Eh/α   predicted     0.0000000E+00 (-100.00%)
   displ. norm   :     0.0121750 α      lambda       -0.1673773E-06
   maximum displ.:     0.0080757 α      in ANC's #1, #10, #6, ...

   *** GEOMETRY OPTIMIZATION CONVERGED AFTER 1 ITERATIONS ***

------------------------------------------------------------------------
 total energy gain   :        -0.0000000 Eh       -0.0000 kcal/mol
 total RMSD          :         0.0000001 a0        0.0000 Å
 total power (kW/mol):        -0.0000005 (step)   -0.0000 (real)
------------------------------------------------------------------------

 ANCopt (total)                0 d,  0 h,  0 min,  0.216 sec
 optimizer setup                ...        0 min,  0.000 sec (  0.089%)
 model hessian                  ...        0 min,  0.085 sec ( 39.496%)
 ANC generation                 ...        0 min,  0.005 sec (  2.532%)
 coordinate transformation      ...        0 min,  0.000 sec (  0.028%)
 single point calculation       ...        0 min,  0.124 sec ( 57.297%)
 optimization log               ...        0 min,  0.000 sec (  0.152%)
 hessian update                 ...        0 min,  0.000 sec (  0.001%)
 rational function              ...        0 min,  0.000 sec (  0.085%)

================
 final structure:
================
48
 xtb: 6.7.1 (edcfbbe)
C            5.00695200000000        1.73067000000000        0.88035100000000
O            4.05961900000000        0.78863900000000        1.34821000000000
C            3.31502100000000        0.19696700000000        0.35153700000000
O            2.43303100000000        1.16568800000000       -0.18339400000000
C            1.58750200000000        0.69310800000000       -1.21080500000000
C            0.95549800000000        1.93448200000000       -1.86293100000000
O            0.60779100000000        1.72442900000000       -3.19644700000000
C            0.63930200000000       -0.34265600000000       -0.57431300000000
O           -0.29750900000000       -0.93426600000000       -1.47435200000000
C           -1.68354400000000       -0.89105500000000       -1.31903800000000
O           -2.12938000000000       -1.68728700000000       -0.23575600000000
C           -2.19969400000000       -1.10521600000000        1.05917900000000
C           -2.86625600000000       -2.15685400000000        1.96337800000000
O           -2.84249600000000       -1.76890800000000        3.31611000000000
C           -2.99741500000000        0.20776800000000        1.07439700000000
O           -2.92492100000000        0.84598800000000        2.32304700000000
C           -2.43668600000000        1.16801700000000        0.02135600000000
O           -3.24405700000000        2.31239100000000       -0.11967700000000
C           -2.44254600000000        0.45015700000000       -1.33072900000000
O           -1.97309700000000        1.25554500000000       -2.37177200000000
C            1.48540000000000       -1.49393800000000       -0.00880500000000
O            0.68328100000000       -2.42528600000000        0.68255100000000
C            2.54937300000000       -0.98209100000000        0.96770800000000
O            3.47155400000000       -1.99351500000000        1.26214300000000
H            4.51314400000000        2.56055600000000        0.36915000000000
H            5.71990800000000        1.25509600000000        0.19786300000000
H            5.52716100000000        2.09307900000000        1.76362200000000
H            3.96416400000000       -0.19284500000000       -0.46109000000000
H            2.18323600000000        0.18503400000000       -1.98798300000000
H            1.72579200000000        2.71068000000000       -1.85422200000000
H            0.10634600000000        2.28648700000000       -1.26738700000000
H           -0.22791900000000        1.23532600000000       -3.21727600000000
H            0.13457300000000        0.16000700000000        0.25636600000000
H           -2.01036300000000       -1.45180100000000       -2.20649800000000
H           -1.19406200000000       -0.90486000000000        1.45998500000000
H           -2.36750700000000       -3.11888600000000        1.80833200000000
H           -3.91819300000000       -2.26288200000000        1.69003500000000
H           -1.94016000000000       -1.84338100000000        3.64920300000000
H           -4.04739200000000       -0.00993600000000        0.81216600000000
H           -3.14491900000000        0.19082700000000        3.00508900000000
H           -1.42178300000000        1.47482400000000        0.31438200000000
H           -3.42049700000000        2.65118600000000        0.76660800000000
H           -3.49639400000000        0.17997600000000       -1.52414300000000
H           -2.39499100000000        2.12079800000000       -2.27651500000000
H            1.98924800000000       -1.99166900000000       -0.85301700000000
H           -0.06543300000000       -2.64452100000000        0.10779800000000
H            2.05768400000000       -0.62193900000000        1.88401200000000
H            2.97162900000000       -2.75393700000000        1.58505800000000

 Bond Distances (Angstroems)
 ---------------------------
C1-O2=1.4155         C1-H25=1.0926        C1-H26=1.0956        C1-H27=1.0873        O2-C1=1.4155         O2-C3=1.3776         
C3-O2=1.3776         C3-O4=1.4151         C3-C23=1.5349        C3-H28=1.1107        O4-C3=1.4151         O4-C5=1.4120         
C5-O4=1.4120         C5-C6=1.5381         C5-C8=1.5418         C5-H29=1.1032        C6-C5=1.5381         C6-O7=1.3940         
C6-H30=1.0936        C6-H31=1.0953        O7-C6=1.3940         O7-H32=0.9685        C8-C5=1.5418         C8-O9=1.4275         
C8-C21=1.5366        C8-H33=1.0943        O9-C8=1.4275         O9-C10=1.3954        C10-O9=1.3954        C10-O11=1.4164       
C10-C19=1.5411       C10-H34=1.0995       O11-C10=1.4164       O11-C12=1.4215       C12-O11=1.4215       C12-C13=1.5388       
C12-C15=1.5364       C12-H35=1.1009       C13-C12=1.5388       C13-O14=1.4075       C13-H36=1.0947       C13-H37=1.0920       
O14-C13=1.4075       O14-H38=0.9647       C15-C12=1.5364       C15-O16=1.4042       C15-C17=1.5315       C15-H39=1.1039       
O16-C15=1.4042       O16-H40=0.9710       C17-C15=1.5315       C17-O18=1.4076       C17-C19=1.5308       C17-H41=1.1000       
O18-C17=1.4076       O18-H42=0.9651       C19-C10=1.5411       C19-C17=1.5308       C19-O20=1.3974       C19-H43=1.1050       
O20-C19=1.3974       O20-H44=0.9673       C21-C8=1.5366        C21-O22=1.4102       C21-C23=1.5322       C21-H45=1.1019       
O22-C21=1.4102       O22-H46=0.9690       C23-C3=1.5349        C23-C21=1.5322       C23-O24=1.4000       C23-H47=1.1005       
O24-C23=1.4000       O24-H48=0.9656       H25-C1=1.0926        H26-C1=1.0956        H27-C1=1.0873        H28-C3=1.1107        
H29-C5=1.1032        H30-C6=1.0936        H31-C6=1.0953        H32-O7=0.9685        H33-C8=1.0943        H34-C10=1.0995       
H35-C12=1.1009       H36-C13=1.0947       H37-C13=1.0920       H38-O14=0.9647       H39-C15=1.1039       H40-O16=0.9710       
H41-C17=1.1000       H42-O18=0.9651       H43-C19=1.1050       H44-O20=0.9673       H45-C21=1.1019       H46-O22=0.9690       
H47-C23=1.1005       H48-O24=0.9656       
 C  H  Rav=1.0983 sigma=0.0057  Rmin=1.0873  Rmax=1.1107    17
 C  C  Rav=1.5362 sigma=0.0037  Rmin=1.5308  Rmax=1.5418    10
 O  H  Rav=0.9673 sigma=0.0021  Rmin=0.9647  Rmax=0.9710     7
 O  C  Rav=1.4068 sigma=0.0121  Rmin=1.3776  Rmax=1.4275    15

 selected bond angles (degree)
 --------------------
H25-C1-O2=110.95               H26-C1-O2=110.64               H26-C1-H25=109.41              H27-C1-O2=105.87               
H27-C1-H25=110.07              H27-C1-H26=109.84              C3-O2-C1=114.11                O4-C3-O2=108.44                
C23-C3-O2=108.00               C23-C3-O4=111.51               H28-C3-O2=111.36               H28-C3-O4=109.14               
H28-C3-C23=108.40              C5-O4-C3=114.78                C6-C5-O4=106.52                C8-C5-O4=107.02                
C8-C5-C6=117.68                H29-C5-O4=110.08               H29-C5-C6=107.15               H29-C5-C8=108.27               
O7-C6-C5=112.73                H30-C6-C5=106.26               H30-C6-O7=106.87               H31-C6-C5=110.33               
H31-C6-O7=112.04               H31-C6-H30=108.28              H32-O7-C6=108.17               O9-C8-C5=114.94                
C21-C8-C5=108.46               C21-C8-O9=106.43               H33-C8-C5=106.77               H33-C8-O9=111.49               
H33-C8-C21=108.59              C10-O9-C8=124.67               O11-C10-O9=112.36              C19-C10-O9=121.02              
C19-C10-O11=109.88             H34-C10-O9=100.93              H34-C10-O11=103.71             H34-C10-C19=106.94             

 selected dihedral angles (degree)
 ---------------------------------
C3-O2-C1-H25= 61.82           C3-O2-C1-H26=300.18           C3-O2-C1-H27=181.22           O4-C3-O2-C1=289.75            
C23-C3-O2-C1=168.76           H28-C3-O2-C1= 49.85           C5-O4-C3-O2=180.82            C5-O4-C3-C23=299.61           
C5-O4-C3-H28= 59.35           C6-C5-O4-C3=192.54            C8-C5-O4-C3= 65.84            H29-C5-O4-C3=308.38           
O7-C6-C5-O4=152.72            O7-C6-C5-C8=272.75            O7-C6-C5-H29= 34.92           H30-C6-C5-O4= 35.98           
H30-C6-C5-C8=156.01           H30-C6-C5-H29=278.18          H31-C6-C5-O4=278.81           H31-C6-C5-C8= 38.84           
H31-C6-C5-H29=161.01          H32-O7-C6-C5= 79.18           H32-O7-C6-H30=195.57          H32-O7-C6-H31=314.02          
O9-C8-C5-O4=180.02            O9-C8-C5-C6= 60.25            O9-C8-C5-H29=298.66           C21-C8-C5-O4=298.98           
C21-C8-C5-C6=179.21           C21-C8-C5-H29= 57.62          H33-C8-C5-O4= 55.82           H33-C8-C5-C6=296.05           
H33-C8-C5-H29=174.46          C10-O9-C8-C5=237.91           C10-O9-C8-C21=117.83          C10-O9-C8-H33=359.58          
O11-C10-O9-C8=289.91          C19-C10-O9-C8= 62.47          H34-C10-O9-C8=180.01          
           -------------------------------------------------
          |                Final Singlepoint                |
           -------------------------------------------------

          ...................................................
          :                      SETUP                      :
          :.................................................:
          :  # basis functions                 120          :
          :  # atomic orbitals                 120          :
          :  # shells                           72          :
          :  # electrons                       142          :
          :  max. iterations                   250          :
          :  Hamiltonian                  GFN2-xTB          :
          :  restarted?                      false          :
          :  GBSA solvation                  false          :
          :  PC potential                    false          :
          :  electronic temp.          300.0000000     K    :
          :  accuracy                    1.0000000          :
          :  -> integral cutoff          0.2500000E+02      :
          :  -> integral neglect         0.1000000E-07      :
          :  -> SCF convergence          0.1000000E-05 Eh   :
          :  -> wf. convergence          0.1000000E-03 e    :
          :  Broyden damping             0.4000000          :
          :  net charge                          0          :
          :  unpaired electrons                  0          :
          ...................................................

 iter      E             dE          RMSdq      gap      omega  full diag
   1    -85.4244997 -0.854245E+02  0.549E-06    9.17       0.0  T
   2    -85.4244997 -0.270006E-12  0.331E-06    9.17    4366.9  T
   3    -85.4244997  0.000000E+00  0.145E-06    9.17    9986.9  T

   *** convergence criteria satisfied after 3 iterations ***

         #    Occupation            Energy/Eh            Energy/eV
      -------------------------------------------------------------
         1        2.0000           -0.7477037             -20.3461
       ...           ...                  ...                  ...
        65        2.0000           -0.4340892             -11.8122
        66        2.0000           -0.4318327             -11.7508
        67        2.0000           -0.4275407             -11.6340
        68        2.0000           -0.4235347             -11.5250
        69        2.0000           -0.4197018             -11.4207
        70        2.0000           -0.4130860             -11.2406
        71        2.0000           -0.4031408             -10.9700 (HOMO)
        72                         -0.0659752              -1.7953 (LUMO)
        73                         -0.0565159              -1.5379
        74                         -0.0149705              -0.4074
        75                         -0.0109296              -0.2974
        76                         -0.0047213              -0.1285
       ...                                ...                  ...
       120                          0.3214739               8.7478
      -------------------------------------------------------------
                  HL-Gap            0.3371656 Eh            9.1747 eV
             Fermi-level           -0.2345580 Eh           -6.3826 eV

 SCC (total)                   0 d,  0 h,  0 min,  0.115 sec
 SCC setup                      ...        0 min,  0.000 sec (  0.414%)
 Dispersion                     ...        0 min,  0.001 sec (  0.660%)
 classical contributions        ...        0 min,  0.000 sec (  0.301%)
 integral evaluation            ...        0 min,  0.021 sec ( 18.367%)
 iterations                     ...        0 min,  0.023 sec ( 19.840%)
 molecular gradient             ...        0 min,  0.069 sec ( 59.786%)
 printout                       ...        0 min,  0.001 sec (  0.610%)

         :::::::::::::::::::::::::::::::::::::::::::::::::::::
         ::                     SUMMARY                     ::
         :::::::::::::::::::::::::::::::::::::::::::::::::::::
         :: total energy             -84.804820634184 Eh    ::
         :: gradient norm              0.000426770706 Eh/a0 ::
         :: HOMO-LUMO gap              9.174742928166 eV    ::
         ::.................................................::
         :: SCC energy               -85.423190241983 Eh    ::
         :: -> isotropic ES            0.236323171094 Eh    ::
         :: -> anisotropic ES         -0.009932851879 Eh    ::
         :: -> anisotropic XC         -0.017108333254 Eh    ::
         :: -> dispersion             -0.048316678655 Eh    ::
         :: repulsion energy           0.618037364240 Eh    ::
         :: add. restraining           0.000332243559 Eh    ::
         :: total charge              -0.000000000000 e     ::
         :::::::::::::::::::::::::::::::::::::::::::::::::::::

========================================================================
 RELAXED SCAN
------------------------------------------------------------------------
 output written to xtbscan.log
 scaning constraint 2
... step 1 ...
      ----------------------------------------------------------- 
     |                   =====================                   |
     |                        A N C O P T                        |
     |                   =====================                   |
     |               Approximate Normal Coordinate               |
     |                Rational Function Optimizer                |
      ----------------------------------------------------------- 
 current energy:         -84.80482063
    bias energy:           0.00033224
unbiased energy:         -84.80515288
... step 2 ...
      ----------------------------------------------------------- 
     |                   =====================                   |
     |                        A N C O P T                        |
     |                   =====================                   |
     |               Approximate Normal Coordinate               |
     |                Rational Function Optimizer                |
      ----------------------------------------------------------- 
 current energy:         -84.80072584
    bias energy:           0.00091441
unbiased energy:         -84.80164025
... step 3 ...
      ----------------------------------------------------------- 
     |                   =====================                   |
     |                        A N C O P T                        |
     |                   =====================                   |
     |               Approximate Normal Coordinate               |
     |                Rational Function Optimizer                |
      ----------------------------------------------------------- 
 current energy:         -84.79510017
    bias energy:           0.00145442
unbiased energy:         -84.79655459
... step 4 ...
      ----------------------------------------------------------- 
     |                   =====================                   |
     |                        A N C O P T                        |
     |                   =====================                   |
     |               Approximate Normal Coordinate               |
     |                Rational Function Optimizer                |
      ----------------------------------------------------------- 
 current energy:         -84.78853690
    bias energy:           0.00185406
unbiased energy:         -84.79039097
... step 5 ...
      ----------------------------------------------------------- 
     |                   =====================                   |
     |                        A N C O P T                        |
     |                   =====================                   |
     |               Approximate Normal Coordinate               |
     |                Rational Function Optimizer                |
      ----------------------------------------------------------- 
 current energy:         -84.78531410
    bias energy:           0.00021205
unbiased energy:         -84.78552615
... step 6 ...
      ----------------------------------------------------------- 
     |                   =====================                   |
     |                        A N C O P T                        |
     |                   =====================                   |
     |               Approximate Normal Coordinate               |
     |                Rational Function Optimizer                |
      ----------------------------------------------------------- 
 current energy:         -84.78351961
    bias energy:           0.00017303
unbiased energy:         -84.78369264
... step 7 ...
      ----------------------------------------------------------- 
     |                   =====================                   |
     |                        A N C O P T                        |
     |                   =====================                   |
     |               Approximate Normal Coordinate               |
     |                Rational Function Optimizer                |
      ----------------------------------------------------------- 
 current energy:         -84.78140989
    bias energy:           0.00018114
unbiased energy:         -84.78159103
... step 8 ...
      ----------------------------------------------------------- 
     |                   =====================                   |
     |                        A N C O P T                        |
     |                   =====================                   |
     |               Approximate Normal Coordinate               |
     |                Rational Function Optimizer                |
      ----------------------------------------------------------- 
 current energy:         -84.78014402
    bias energy:           0.00038985
unbiased energy:         -84.78053387
... step 9 ...
      ----------------------------------------------------------- 
     |                   =====================                   |
     |                        A N C O P T                        |
     |                   =====================                   |
     |               Approximate Normal Coordinate               |
     |                Rational Function Optimizer                |
      ----------------------------------------------------------- 
 current energy:         -84.78342083
    bias energy:           0.00091072
unbiased energy:         -84.78433155
... step 10 ...
      ----------------------------------------------------------- 
     |                   =====================                   |
     |                        A N C O P T                        |
     |                   =====================                   |
     |               Approximate Normal Coordinate               |
     |                Rational Function Optimizer                |
      ----------------------------------------------------------- 
 current energy:         -84.78470583
    bias energy:           0.00053018
unbiased energy:         -84.78523601
... step 11 ...
      ----------------------------------------------------------- 
     |                   =====================                   |
     |                        A N C O P T                        |
     |                   =====================                   |
     |               Approximate Normal Coordinate               |
     |                Rational Function Optimizer                |
      ----------------------------------------------------------- 
 current energy:         -84.78548417
    bias energy:           0.00026433
unbiased energy:         -84.78574850
... step 12 ...
      ----------------------------------------------------------- 
     |                   =====================                   |
     |                        A N C O P T                        |
     |                   =====================                   |
     |               Approximate Normal Coordinate               |
     |                Rational Function Optimizer                |
      ----------------------------------------------------------- 
 current energy:         -84.78612428
    bias energy:           0.00014993
unbiased energy:         -84.78627420
... step 13 ...
      ----------------------------------------------------------- 
     |                   =====================                   |
     |                        A N C O P T                        |
     |                   =====================                   |
     |               Approximate Normal Coordinate               |
     |                Rational Function Optimizer                |
      ----------------------------------------------------------- 
 current energy:         -84.78727820
    bias energy:           0.00024294
unbiased energy:         -84.78752114
... step 14 ...
      ----------------------------------------------------------- 
     |                   =====================                   |
     |                        A N C O P T                        |
     |                   =====================                   |
     |               Approximate Normal Coordinate               |
     |                Rational Function Optimizer                |
      ----------------------------------------------------------- 
 current energy:         -84.79083133
    bias energy:           0.00024806
unbiased energy:         -84.79107939
... step 15 ...
      ----------------------------------------------------------- 
     |                   =====================                   |
     |                        A N C O P T                        |
     |                   =====================                   |
     |               Approximate Normal Coordinate               |
     |                Rational Function Optimizer                |
      ----------------------------------------------------------- 
 current energy:         -84.79297007
    bias energy:           0.00016669
unbiased energy:         -84.79313676
... step 16 ...
      ----------------------------------------------------------- 
     |                   =====================                   |
     |                        A N C O P T                        |
     |                   =====================                   |
     |               Approximate Normal Coordinate               |
     |                Rational Function Optimizer                |
      ----------------------------------------------------------- 
 current energy:         -84.79451498
    bias energy:           0.00004439
unbiased energy:         -84.79455937
... step 17 ...
      ----------------------------------------------------------- 
     |                   =====================                   |
     |                        A N C O P T                        |
     |                   =====================                   |
     |               Approximate Normal Coordinate               |
     |                Rational Function Optimizer                |
      ----------------------------------------------------------- 
 current energy:         -84.79822487
    bias energy:           0.00004492
unbiased energy:         -84.79826980
... step 18 ...
      ----------------------------------------------------------- 
     |                   =====================                   |
     |                        A N C O P T                        |
     |                   =====================                   |
     |               Approximate Normal Coordinate               |
     |                Rational Function Optimizer                |
      ----------------------------------------------------------- 
 current energy:         -84.79870941
    bias energy:           0.00002504
unbiased energy:         -84.79873445
... step 19 ...
      ----------------------------------------------------------- 
     |                   =====================                   |
     |                        A N C O P T                        |
     |                   =====================                   |
     |               Approximate Normal Coordinate               |
     |                Rational Function Optimizer                |
      ----------------------------------------------------------- 
 current energy:         -84.79823113
    bias energy:           0.00005385
unbiased energy:         -84.79828498
... step 20 ...
      ----------------------------------------------------------- 
     |                   =====================                   |
     |                        A N C O P T                        |
     |                   =====================                   |
     |               Approximate Normal Coordinate               |
     |                Rational Function Optimizer                |
      ----------------------------------------------------------- 
 current energy:         -84.79826708
    bias energy:           0.00002434
unbiased energy:         -84.79829142
... step 21 ...
      ----------------------------------------------------------- 
     |                   =====================                   |
     |                        A N C O P T                        |
     |                   =====================                   |
     |               Approximate Normal Coordinate               |
     |                Rational Function Optimizer                |
      ----------------------------------------------------------- 
 current energy:         -84.79700680
    bias energy:           0.00011277
unbiased energy:         -84.79711957
... step 22 ...
      ----------------------------------------------------------- 
     |                   =====================                   |
     |                        A N C O P T                        |
     |                   =====================                   |
     |               Approximate Normal Coordinate               |
     |                Rational Function Optimizer                |
      ----------------------------------------------------------- 
 current energy:         -84.79662245
    bias energy:           0.00016388
unbiased energy:         -84.79678633
... step 23 ...
      ----------------------------------------------------------- 
     |                   =====================                   |
     |                        A N C O P T                        |
     |                   =====================                   |
     |               Approximate Normal Coordinate               |
     |                Rational Function Optimizer                |
      ----------------------------------------------------------- 
 current energy:         -84.79503278
    bias energy:           0.00018862
unbiased energy:         -84.79522139
... step 24 ...
      ----------------------------------------------------------- 
     |                   =====================                   |
     |                        A N C O P T                        |
     |                   =====================                   |
     |               Approximate Normal Coordinate               |
     |                Rational Function Optimizer                |
      ----------------------------------------------------------- 
 current energy:         -84.79349860
    bias energy:           0.00015397
unbiased energy:         -84.79365257
... step 25 ...
      ----------------------------------------------------------- 
     |                   =====================                   |
     |                        A N C O P T                        |
     |                   =====================                   |
     |               Approximate Normal Coordinate               |
     |                Rational Function Optimizer                |
      ----------------------------------------------------------- 
 current energy:         -84.79223569
    bias energy:           0.00013312
unbiased energy:         -84.79236881
... step 26 ...
      ----------------------------------------------------------- 
     |                   =====================                   |
     |                        A N C O P T                        |
     |                   =====================                   |
     |               Approximate Normal Coordinate               |
     |                Rational Function Optimizer                |
      ----------------------------------------------------------- 
 current energy:         -84.79124908
    bias energy:           0.00009296
unbiased energy:         -84.79134204
... step 27 ...
      ----------------------------------------------------------- 
     |                   =====================                   |
     |                        A N C O P T                        |
     |                   =====================                   |
     |               Approximate Normal Coordinate               |
     |                Rational Function Optimizer                |
      ----------------------------------------------------------- 
 current energy:         -84.79093177
    bias energy:           0.00005676
unbiased energy:         -84.79098853
... step 28 ...
      ----------------------------------------------------------- 
     |                   =====================                   |
     |                        A N C O P T                        |
     |                   =====================                   |
     |               Approximate Normal Coordinate               |
     |                Rational Function Optimizer                |
      ----------------------------------------------------------- 
 current energy:         -84.79321874
    bias energy:           0.00091862
unbiased energy:         -84.79413736
... step 29 ...
      ----------------------------------------------------------- 
     |                   =====================                   |
     |                        A N C O P T                        |
     |                   =====================                   |
     |               Approximate Normal Coordinate               |
     |                Rational Function Optimizer                |
      ----------------------------------------------------------- 
 current energy:         -84.79662048
    bias energy:           0.00053788
unbiased energy:         -84.79715836
... step 30 ...
      ----------------------------------------------------------- 
     |                   =====================                   |
     |                        A N C O P T                        |
     |                   =====================                   |
     |               Approximate Normal Coordinate               |
     |                Rational Function Optimizer                |
      ----------------------------------------------------------- 
 current energy:         -84.79917693
    bias energy:           0.00022569
unbiased energy:         -84.79940262
... step 31 ...
      ----------------------------------------------------------- 
     |                   =====================                   |
     |                        A N C O P T                        |
     |                   =====================                   |
     |               Approximate Normal Coordinate               |
     |                Rational Function Optimizer                |
      ----------------------------------------------------------- 
 current energy:         -84.80060150
    bias energy:           0.00003337
unbiased energy:         -84.80063487
... step 32 ...
      ----------------------------------------------------------- 
     |                   =====================                   |
     |                        A N C O P T                        |
     |                   =====================                   |
     |               Approximate Normal Coordinate               |
     |                Rational Function Optimizer                |
      ----------------------------------------------------------- 
 current energy:         -84.80074592
    bias energy:           0.00001379
unbiased energy:         -84.80075971
... step 33 ...
      ----------------------------------------------------------- 
     |                   =====================                   |
     |                        A N C O P T                        |
     |                   =====================                   |
     |               Approximate Normal Coordinate               |
     |                Rational Function Optimizer                |
      ----------------------------------------------------------- 
 current energy:         -84.79959073
    bias energy:           0.00015269
unbiased energy:         -84.79974342
... step 34 ...
      ----------------------------------------------------------- 
     |                   =====================                   |
     |                        A N C O P T                        |
     |                   =====================                   |
     |               Approximate Normal Coordinate               |
     |                Rational Function Optimizer                |
      ----------------------------------------------------------- 
 current energy:         -84.79752995
    bias energy:           0.00027548
unbiased energy:         -84.79780543
... step 35 ...
      ----------------------------------------------------------- 
     |                   =====================                   |
     |                        A N C O P T                        |
     |                   =====================                   |
     |               Approximate Normal Coordinate               |
     |                Rational Function Optimizer                |
      ----------------------------------------------------------- 
 current energy:         -84.80396728
    bias energy:           0.00000656
unbiased energy:         -84.80397384
... step 36 ...
      ----------------------------------------------------------- 
     |                   =====================                   |
     |                        A N C O P T                        |
     |                   =====================                   |
     |               Approximate Normal Coordinate               |
     |                Rational Function Optimizer                |
      ----------------------------------------------------------- 
 current energy:         -84.80333206
    bias energy:           0.00004642
unbiased energy:         -84.80337847
           -------------------------------------------------
          |                Property Printout                |
           -------------------------------------------------

    * Orbital Energies and Occupations

         #    Occupation            Energy/Eh            Energy/eV
      -------------------------------------------------------------
         1        2.0000           -0.7570166             -20.5995
       ...           ...                  ...                  ...
        59        2.0000           -0.4713810             -12.8269
        60        2.0000           -0.4617104             -12.5638
        61        2.0000           -0.4580289             -12.4636
        62        2.0000           -0.4535232             -12.3410
        63        2.0000           -0.4429103             -12.0522
        64        2.0000           -0.4401789             -11.9779
        65        2.0000           -0.4365568             -11.8793
        66        2.0000           -0.4288653             -11.6700
        67        2.0000           -0.4222979             -11.4913
        68        2.0000           -0.4172976             -11.3552
        69        2.0000           -0.4159378             -11.3182
        70        2.0000           -0.4100968             -11.1593
        71        2.0000           -0.4059714             -11.0470 (HOMO)
        72                         -0.0770950              -2.0979 (LUMO)
        73                         -0.0528951              -1.4393
        74                         -0.0150462              -0.4094
        75                         -0.0098894              -0.2691
        76                          0.0010598               0.0288
        77                          0.0090270               0.2456
        78                          0.0126487               0.3442
        79                          0.0171221               0.4659
        80                          0.0235959               0.6421
        81                          0.0278891               0.7589
        82                          0.0384515               1.0463
       ...                                ...                  ...
       120                          0.3101083               8.4385
      -------------------------------------------------------------
                  HL-Gap            0.3288763 Eh            8.9492 eV
             Fermi-level           -0.2415332 Eh           -6.5725 eV

     #   Z          covCN         q      C6AA      α(0)
     1   6 C        3.656     0.030    20.361     6.478
     2   8 O        1.703    -0.285    18.737     5.844
     3   6 C        3.660     0.246    17.041     5.923
     4   8 O        1.702    -0.336    19.639     5.983
     5   6 C        3.751     0.094    19.086     6.230
     6   6 C        3.675     0.070    19.629     6.348
     7   8 O        1.656    -0.436    21.568     6.269
     8   6 C        3.732     0.079    19.355     6.279
     9   8 O        1.700    -0.321    19.373     5.943
    10   6 C        3.623     0.236    17.313     5.997
    11   8 O        1.698    -0.362    20.117     6.056
    12   6 C        3.733     0.088    19.200     6.254
    13   6 C        3.675     0.065    19.710     6.362
    14   8 O        1.655    -0.434    21.521     6.263
    15   6 C        3.725     0.092    19.162     6.251
    16   8 O        1.656    -0.454    21.934     6.322
    17   6 C        3.728     0.091    19.164     6.250
    18   8 O        1.657    -0.441    21.655     6.282
    19   6 C        3.724     0.080    19.342     6.280
    20   8 O        1.656    -0.431    21.455     6.253
    21   6 C        3.728     0.095    19.102     6.240
    22   8 O        1.656    -0.460    22.053     6.339
    23   6 C        3.727     0.096    19.090     6.238
    24   8 O        1.657    -0.431    21.462     6.254
    25   1 H        0.924     0.054     2.274     2.358
    26   1 H        0.924     0.041     2.441     2.443
    27   1 H        0.925     0.073     2.056     2.242
    28   1 H        0.921     0.012     2.867     2.648
    29   1 H        0.923     0.037     2.492     2.469
    30   1 H        0.924     0.073     2.048     2.238
    31   1 H        0.923     0.043     2.405     2.425
    32   1 H        0.805     0.300     0.720     1.332
    33   1 H        0.924     0.066     2.126     2.280
    34   1 H        0.923     0.045     2.379     2.412
    35   1 H        0.923     0.034     2.527     2.486
    36   1 H        0.924     0.048     2.345     2.395
    37   1 H        0.924     0.066     2.134     2.285
    38   1 H        0.805     0.303     0.713     1.326
    39   1 H        0.923     0.029     2.596     2.520
    40   1 H        0.804     0.322     0.660     1.276
    41   1 H        0.923     0.057     2.234     2.337
    42   1 H        0.805     0.315     0.678     1.293
    43   1 H        0.924     0.089     1.888     2.149
    44   1 H        0.805     0.304     0.710     1.324
    45   1 H        0.923     0.035     2.517     2.481
    46   1 H        0.804     0.318     0.670     1.286
    47   1 H        0.923     0.049     2.335     2.390
    48   1 H        0.805     0.318     0.669     1.285

 Mol. C6AA /au·bohr⁶  :      19134.792263
 Mol. C8AA /au·bohr⁸  :     409115.669907
 Mol. α(0) /au        :        198.618488


Wiberg/Mayer (AO) data.
largest (>0.10) Wiberg bond orders for each atom

 ---------------------------------------------------------------------------
     #   Z sym  total        # sym  WBO       # sym  WBO       # sym  WBO
 ---------------------------------------------------------------------------
     1   6 C    3.936 --    27 H    0.980    25 H    0.980    26 H    0.978
                             2 O    0.974
     2   8 O    2.110 --     3 C    1.020     1 C    0.974
     3   6 C    3.934 --     2 O    1.020    23 C    0.959     4 O    0.946
                            28 H    0.941
     4   8 O    2.075 --     5 C    0.980     3 C    0.946
     5   6 C    3.948 --     4 O    0.980     6 C    0.976     8 C    0.963
                            29 H    0.954
     6   6 C    3.958 --     7 O    1.013     5 C    0.976    30 H    0.967
                            31 H    0.964
     7   8 O    1.960 --     6 C    1.013    32 H    0.881
     8   6 C    3.930 --    21 C    0.971     5 C    0.963    33 H    0.953
                             9 O    0.936
     9   8 O    2.119 --    10 C    1.013     8 C    0.936
    10   6 C    3.923 --     9 O    1.013    19 C    0.954    34 H    0.945
                            11 O    0.933
    11   8 O    2.069 --    12 C    0.956    10 C    0.933
    12   6 C    3.942 --    13 C    0.971    15 C    0.968    11 O    0.956
                            35 H    0.956
    13   6 C    3.952 --    14 O    1.004    12 C    0.971    36 H    0.969
                            37 H    0.969
    14   8 O    1.989 --    13 C    1.004    38 H    0.894
    15   6 C    3.963 --    16 O    1.007    12 C    0.968    17 C    0.964
                            39 H    0.955
    16   8 O    1.951 --    15 C    1.007    40 H    0.858
    17   6 C    3.960 --    18 O    1.005    15 C    0.964    19 C    0.962
                            41 H    0.955
    18   8 O    1.962 --    17 C    1.005    42 H    0.885
    19   6 C    3.957 --    20 O    1.007    17 C    0.962    10 C    0.954
                            43 H    0.950
    20   8 O    1.988 --    19 C    1.007    44 H    0.885
    21   6 C    3.963 --    22 O    0.999     8 C    0.971    23 C    0.966
                            45 H    0.955
    22   8 O    1.945 --    21 C    0.999    46 H    0.858
    23   6 C    3.964 --    24 O    1.008    21 C    0.966     3 C    0.959
                            47 H    0.955
    24   8 O    1.963 --    23 C    1.008    48 H    0.882
    25   1 H    0.997 --     1 C    0.980
    26   1 H    0.998 --     1 C    0.978
    27   1 H    0.994 --     1 C    0.980
    28   1 H    1.000 --     3 C    0.941
    29   1 H    0.999 --     5 C    0.954
    30   1 H    0.994 --     6 C    0.967
    31   1 H    0.998 --     6 C    0.964
    32   1 H    0.910 --     7 O    0.881
    33   1 H    0.996 --     8 C    0.953
    34   1 H    0.997 --    10 C    0.945
    35   1 H    0.999 --    12 C    0.956
    36   1 H    0.997 --    13 C    0.969
    37   1 H    0.996 --    13 C    0.969
    38   1 H    0.908 --    14 O    0.894
    39   1 H    0.999 --    15 C    0.955
    40   1 H    0.897 --    16 O    0.858
    41   1 H    0.997 --    17 C    0.955
    42   1 H    0.901 --    18 O    0.885
    43   1 H    0.992 --    19 C    0.950
    44   1 H    0.908 --    20 O    0.885
    45   1 H    0.999 --    21 C    0.955
    46   1 H    0.899 --    22 O    0.858
    47   1 H    0.998 --    23 C    0.955
    48   1 H    0.899 --    24 O    0.882
 ---------------------------------------------------------------------------

Topologies differ in total number of bonds
Writing topology from bond orders to xtbtopo.mol

molecular dipole:
                 x           y           z       tot (Debye)
 q only:       -1.337       0.503      -0.407
   full:       -2.068       0.973      -0.505       5.949
molecular quadrupole (traceless):
                xx          xy          yy          xz          yz          zz
 q only:       11.603      -8.399      -8.069       6.349       0.672      -3.534
  q+dip:        6.583     -10.033      -8.671      11.205       5.778       2.088
   full:        9.011     -10.519      -9.528      10.828       3.932       0.517

           -------------------------------------------------
          |                Geometry Summary                 |
           -------------------------------------------------

      molecular mass/u    :      356.3235988
   center of mass at/Å    :       -0.0574620       0.0080039       0.1083464
  moments of inertia/u·Å² :        0.1167661E+04   0.3847109E+04   0.4633419E+04
rotational constants/cm⁻¹ :        0.1443710E-01   0.4381896E-02   0.3638271E-02

 * 46 selected distances

     #   Z          #   Z                                           value/Å
     1   6 C        2   8 O                                       1.4152715
     2   8 O        3   6 C                                       1.3773188
     3   6 C        4   8 O                                       1.4164766
     4   8 O        5   6 C                                       1.4039447
     5   6 C        6   6 C                                       1.5332157
     6   6 C        7   8 O                                       1.4026048
     5   6 C        8   6 C                                       1.5399683 (max)
     8   6 C        9   8 O                                       1.4383070
     9   8 O       10   6 C                                       1.3833598
    10   6 C       11   8 O                                       1.4275250
    11   8 O       12   6 C                                       1.4206423
    13   6 C       14   8 O                                       1.4068546
    12   6 C       15   6 C                                       1.5382275
    15   6 C       16   8 O                                       1.4033566
    17   6 C       18   8 O                                       1.4021215
    10   6 C       19   6 C                                       1.5386605
    19   6 C       20   8 O                                       1.4016527
     8   6 C       21   6 C                                       1.5323419
    21   6 C       22   8 O                                       1.4086027
     3   6 C       23   6 C                                       1.5343987
    21   6 C       23   6 C                                       1.5371571
    23   6 C       24   8 O                                       1.4006140
     1   6 C       25   1 H                                       1.0925424
     1   6 C       26   1 H                                       1.0957523
     1   6 C       27   1 H                                       1.0872325
     3   6 C       28   1 H                                       1.1114270
     5   6 C       29   1 H                                       1.1044267
     6   6 C       30   1 H                                       1.0920533
     6   6 C       31   1 H                                       1.0985934
     7   8 O       32   1 H                                       0.9658872
     8   6 C       33   1 H                                       1.0925777
    10   6 C       34   1 H                                       1.1012492
    12   6 C       35   1 H                                       1.1043983
    13   6 C       36   1 H                                       1.0956585
    13   6 C       37   1 H                                       1.0927621
    14   8 O       38   1 H                                       0.9642725 (min)
    15   6 C       39   1 H                                       1.1030465
    16   8 O       40   1 H                                       0.9711397
    17   6 C       41   1 H                                       1.1008820
    18   8 O       42   1 H                                       0.9647334
    19   6 C       43   1 H                                       1.0930398
    20   8 O       44   1 H                                       0.9658219
    21   6 C       45   1 H                                       1.1032266
    22   8 O       46   1 H                                       0.9694146
    23   6 C       47   1 H                                       1.0999349
    24   8 O       48   1 H                                       0.9657962

 * 4 distinct bonds (by element types)

   Z      Z             #   av. dist./Å        max./Å        min./Å
   1 H    6 C          17     1.0981649     1.1114270     1.0872325
Note: The following floating-point exceptions are signalling: IEEE_UNDERFLOW_FLAG IEEE_DENORMAL
normal termination of xtb
   6 C    6 C           7     1.5362814     1.5399683     1.5323419
   1 H    8 O           7     0.9667236     0.9711397     0.9642725
   6 C    8 O          15     1.4072435     1.4383070     1.3773188


optimized geometry written to: xtbopt.xyz


           -------------------------------------------------
          | TOTAL ENERGY              -84.804820634184 Eh   |
          | GRADIENT NORM               0.000426770706 Eh/α |
          | HOMO-LUMO GAP               8.949180933023 eV   |
           -------------------------------------------------

------------------------------------------------------------------------
 * finished run on 2026/09/22 at 13:24:14.931     
------------------------------------------------------------------------
 total:
 * wall-time:     0 d,  0 h,  3 min, 33.653 sec
 *  cpu-time:     0 d,  0 h,  3 min, 22.022 sec
 * ratio c/w:     0.946 speedup
 SCF:
 * wall-time:     0 d,  0 h,  0 min,  0.189 sec
 *  cpu-time:     0 d,  0 h,  0 min,  0.168 sec
 * ratio c/w:     0.890 speedup
 ANC optimizer:
 * wall-time:     0 d,  0 h,  3 min, 33.412 sec
 *  cpu-time:     0 d,  0 h,  3 min, 21.809 sec
 * ratio c/w:     0.946 speedup

