48
 energy: -84.856431775186 gnorm: 0.000546367513 xtb: 6.7.1 (edcfbbe)
C            5.48418593746602        1.27777084593734        0.55182852569470
O            4.93170882827112        0.19732119605914       -0.19540385915234
C            3.55735310827747        0.23415409701212       -0.34714382719708
O            2.93370372893874        0.03492459443183        0.90287094995904
C            1.52199605532300        0.09497819248126        0.84136940043216
C            0.99918608015716       -0.13180706742486        2.27105786207209
O            0.78024816542209        1.06184908911722        2.97722577246962
C            0.92252892730433       -0.93431368371429       -0.14333320163539
O           -0.42934466040937       -0.57297408991338       -0.38762106885351
C           -1.44419455631182       -1.38523956611206        0.12681194881180
O           -1.96801131055931       -0.84088750165812        1.31445702781762
C           -2.48726750976502        0.47937705528812        1.14946769128747
C           -2.86941582051658        1.02408023482936        2.53717351589563
O           -2.00165961667727        2.02648579004370        2.99594553125982
C           -3.66915817317173        0.44600081483540        0.16973390452381
O           -4.26346452122900        1.70295303523096       -0.01769674007395
C           -3.19068924891725       -0.14568876387789       -1.16692879534431
O           -4.25504805776046       -0.30082918193151       -2.07596512499989
C           -2.57285104635713       -1.52443374704564       -0.91298489960272
O           -2.05572666910981       -2.10592866326551       -2.07357673785566
C            1.65428601155656       -0.95499687285344       -1.49258249838768
O            1.28277978011746       -2.13581413153268       -2.15099504150042
C            3.17725940273207       -0.89460832273363       -1.31357393553976
O            3.74066016037597       -0.69481257759703       -2.58246871224740
H            5.15557340413837        1.23209847975144        1.59019101105436
H            5.19046512272600        2.23368213157576        0.10969749223661
H            6.56083489785332        1.14864852553700        0.49162460770443
H            3.23053213494861        1.21078083152713       -0.76502986134244
H            1.21147511677668        1.09273546495357        0.48966525840366
H            1.71680030541113       -0.77670933319904        2.78893394009551
H            0.03051637713279       -0.63171143077437        2.23163066277716
H            1.62409384877693        1.49758530830517        3.16159001367839
H            0.98132159380186       -1.94237317227181        0.28333955899725
H           -1.06473075673095       -2.37967455620628        0.38750346942704
H           -1.69757622671157        1.11762022364982        0.72535422574205
H           -2.91061800792558        0.17698880599078        3.23109459238507
H           -3.85423256763087        1.49300349851577        2.48126824594444
H           -1.10198486177137        1.67078059389765        3.10952974796276
H           -4.45738538911420       -0.19831146945084        0.57619279223236
H           -3.58075507244480        2.36664740092588       -0.19580150485684
H           -2.41467400016848        0.50437856451755       -1.60255234143806
H           -4.82657178427419        0.48054206333894       -2.01322349525940
H           -3.34713173399846       -2.17253570678772       -0.46967220671836
H           -2.72063341670963       -2.01763668551692       -2.77537222000193
H            1.33741006402831       -0.07373116932948       -2.06972726080244
H            1.69252229316650       -2.14504248865965       -3.02953220405066
H            3.52280492742468       -1.84032877862161       -0.87076016751389
H            4.70484973417576       -0.64769993093796       -2.49705998664707
