48
 energy: -84.856434605984 gnorm: 0.000776136503 xtb: 6.7.1 (edcfbbe)
C            5.48487605513959        1.27764894445848        0.55481104756964
O            4.93127126841213        0.19998287771828       -0.19554834665146
C            3.55677602006343        0.23747321974723       -0.34640537697069
O            2.93366003494014        0.03657981020584        0.90381731423527
C            1.52193853942155        0.09570372907195        0.84324517269401
C            1.00001366974318       -0.13503963353758        2.27272307811006
O            0.78010052879381        1.05680647720088        2.98207358838780
C            0.92225109782209       -0.93227844544344       -0.14252247376923
O           -0.42982524280324       -0.57143060468329       -0.38618014960026
C           -1.44410823461090       -1.38478883225593        0.12780213937941
O           -1.96797475848942       -0.84121034149653        1.31574823798894
C           -2.49085399245029        0.47762069787073        1.15009850653416
C           -2.87396048158156        1.02276591285821        2.53701420723559
O           -2.00250827092808        2.01991117776853        3.00023676857264
C           -3.67386603476230        0.44021254010629        0.17161383831174
O           -4.27321967964775        1.69489049270416       -0.01445153816615
C           -3.19415563031346       -0.14906870090316       -1.16552136881448
O           -4.25769574747281       -0.30720630734994       -2.07490960825396
C           -2.57238982913317       -1.52612835049487       -0.91193211574745
O           -2.05388748236147       -2.10587854628928       -2.07274582342586
C            1.65311593510544       -0.94991015161221       -1.49225377392233
O            1.28106469645434       -2.12885737566100       -2.15361424358284
C            3.17616616377075       -0.89025524919262       -1.31385641127135
O            3.73899197136848       -0.68991871530257       -2.58269367195945
H            5.15916742243310        1.22733970470242        1.59386580873669
H            5.18945102707320        2.23522905790056        0.11766487461163
H            6.56137963322497        1.14938421856547        0.49102397959888
H            3.23003646234585        1.21469469407125       -0.76255650296828
H            1.21006970299888        1.09388269792335        0.49411260904840
H            1.71841458370481       -0.77994208339182        2.78938826172808
H            0.03179138517920       -0.63567944468803        2.23225259596321
H            1.62362046560548        1.49379324784529        3.16517640532260
H            0.98193882907058       -1.94104598896971        0.28233132172326
H           -1.06327200373869       -2.37879184792705        0.38833894728776
H           -1.70329396612445        1.11746978407292        0.72473739123960
H           -2.92259639289159        0.17570922545017        3.23029071975330
H           -3.85578075017505        1.49756837636476        2.47829403004146
H           -1.10407590677564        1.66116477761992        3.11037293285528
H           -4.45901479242898       -0.20736712771293        0.57885952988037
H           -3.59346988500672        2.36091180378423       -0.19507052978885
H           -2.41985166074313        0.50346213178965       -1.60082413619293
H           -4.83595589248844        0.46901669655193       -2.00745369361569
H           -3.34485153135342       -2.17649043869163       -0.46876401027211
H           -2.71870860550736       -2.01774681021892       -2.77457028645586
H            1.33617182344861       -0.06708528855456       -2.06696518568196
H            1.69083860995403       -2.13578726223106       -3.03213814486388
H            3.52138365066161       -1.83637244192247       -0.87148190731672
H            4.70328019204762       -0.64307835996168       -2.49811195214425
