48
 energy: -84.846972359923 gnorm: 0.000471951164 xtb: 6.7.1 (edcfbbe)
C            5.45902949658546        1.26522963769145        0.56800811918652
O            4.91799475477003        0.18961288215441       -0.19644824735273
C            3.54252491999281        0.22777114662722       -0.34292325713854
O            2.93081161384845        0.03061558743607        0.91105058527914
C            1.52344196674918        0.13765616998465        0.86929141551160
C            1.04041370386225       -0.01611918677400        2.31298466411179
O            1.24959218083200        1.20632190570842        2.98338166409515
C            0.89780491637129       -0.91041743743648       -0.07556624089650
O           -0.45723723426192       -0.57402169257852       -0.33170901110447
C           -1.46581219990076       -1.37833430726835        0.21132269013628
O           -2.00896261211004       -0.80810538442025        1.37402403913938
C           -2.59451788238982        0.47485977895734        1.16530164334605
C           -3.07490087060424        1.00402950214776        2.52684453412265
O           -4.07486144230826        0.22938972438173        3.13262040188690
C           -3.72234184350114        0.40607904505358        0.12617455196145
O           -4.21540600409395        1.70953797424124       -0.06287255546385
C           -3.16396779230503       -0.20069296736002       -1.17437918481854
O           -4.17735915324480       -0.37883182813911       -2.14234508061464
C           -2.57677008486401       -1.57546982785323       -0.83517938889641
O           -2.04981258356467       -2.23144932213331       -1.94966014959608
C            1.61468119990202       -0.95782061157789       -1.43507646039569
O            1.22041896956342       -2.14110419432099       -2.07596577466171
C            3.14186247142034       -0.90765640873126       -1.29203922459976
O            3.67759319390146       -0.72925584605712       -2.57623506041700
H            5.03419487421487        1.26957541903066        1.57241524036314
H            5.25058974832176        2.21918308153655        0.07556886208046
H            6.52860104597880        1.08232223122886        0.60598170786668
H            3.21462242680921        1.20375281070430       -0.76147716250792
H            1.24000997886069        1.13793300701282        0.50475522404213
H            1.62408773271858       -0.82333315365935        2.76747982702233
H           -0.02325826622891       -0.28143312973205        2.31805073079401
H            1.23113642695553        1.05609924616977        3.93882149666239
H            0.96585052144358       -1.90716857067061        0.37652979668224
H           -1.07021062258097       -2.35530973183972        0.51355018035398
H           -1.82810042433828        1.16664455508040        0.78766036431250
H           -2.22728987590774        0.98439994161736        3.21315693211342
H           -3.40265597563210        2.03858733967634        2.38211081192012
H           -4.91715667685664        0.36955728929016        2.67869474526869
H           -4.51293227141222       -0.26494707484382        0.49354652878413
H           -4.99809875981321        1.67169086217741       -0.63324022779611
H           -2.35477583372303        0.43225824886325       -1.55524678387430
H           -4.24419065666185        0.40746119325667       -2.70023098997451
H           -3.36431742938558       -2.18765972461893       -0.36528941627098
H           -2.72312559354911       -2.22489402880813       -2.65025579136000
H            1.29463564448353       -0.07953979250421       -2.01584553331335
H            1.63514691567143       -2.17017310428539       -2.95210232010041
H            3.49080574099043       -1.85014278717651       -0.84490105327211
H            4.64304964435944       -0.67648352675616       -2.51079177055938
