48
 energy: -84.856430232140 gnorm: 0.000476098582 xtb: 6.7.1 (edcfbbe)
C            5.48711609498791        1.27347683507416        0.54909176635363
O            4.93475256405594        0.19053645419007       -0.19456604102963
C            3.56048272359088        0.22661850097351       -0.34672261539303
O            2.93663043660172        0.03080690038924        0.90383618328321
C            1.52490683267722        0.09042168669019        0.84191466888164
C            1.00184571785527       -0.13318777721373        2.27199247102177
O            0.78384396605028        1.06212326215343        2.97567651722704
C            0.92555833717361       -0.94096801130240       -0.14064536416840
O           -0.42619774863797       -0.57994034975674       -0.38546761188542
C           -1.44099213601771       -1.39115787176342        0.13063712160154
O           -1.96451661003030       -0.84460100512606        1.31753709104267
C           -2.48376903450031        0.47537444109233        1.15048084987677
C           -2.86462315776431        1.02282443548131        2.53737648268285
O           -1.99739482341239        2.02732774527665        2.99257659297230
C           -3.66646096865167        0.43987792655153        0.17177162939584
O           -4.26221371025463        1.69593574767527       -0.01670286902784
C           -3.18783854645904       -0.15302727247155       -1.16416913927255
O           -4.25155704825514       -0.30891908419664       -2.07366837948379
C           -2.57019754585134       -1.53165991799258       -0.90838453888656
O           -2.05453344089390       -2.11517508395601       -2.06863780007146
C            1.65775699242708       -0.96534045790377       -1.48948405568515
O            1.28610475574786       -2.14787410262936       -2.14491402364979
C            3.18062847637760       -0.90534668667277       -1.30954111556904
O            3.74518019350606       -0.71087456640158       -2.57862278891567
H            5.16056089032506        1.22990062287604        1.58819967052968
H            5.19134898215864        2.22794058731524        0.10531730797252
H            6.56379097789840        1.14564007762793        0.48718719119123
H            3.23347726920123        1.20191502372933       -0.76743377575298
H            1.21431932375700        1.08737895945878        0.48808820216257
H            1.71875795218845       -0.77725982608097        2.79162702649110
H            0.03291871333055       -0.63235728427956        2.23355510278636
H            1.62787341889929        1.49821141378655        3.15786353270317
H            0.98422656218146       -1.94808654475710        0.28839981757244
H           -1.06167016877285       -2.38520999957276        0.39289749737020
H           -1.69446022824558        1.11266279158722        0.72427723498201
H           -2.90396872242369        0.17720999174851        3.23353539417440
H           -3.85026559982582        1.49047282388829        2.48175730124680
H           -1.09685395872693        1.67349681125910        3.10415339959231
H           -4.45361305246133       -0.20491651213538        0.57961362906610
H           -3.58030034111345        2.36056065428791       -0.19411714403260
H           -2.41140627895829        0.49645640789372       -1.60016139681219
H           -4.82710822278189        0.46932925890382       -2.00712657009418
H           -3.34436390121317       -2.17885467086992       -0.46350713742287
H           -2.71834915750700       -2.02284487674172       -2.77095551350458
H            1.34161397081571       -0.08566819205007       -2.06946314780489
H            1.69900187517488       -2.16114639551948       -3.02193799794872
H            3.52507502992392       -1.84960421346980       -0.86264072358453
H            4.70922534393873       -0.66242971171319       -2.49250887903028
