48
 energy: -84.744879377073 gnorm: 0.000499584133 xtb: 6.7.1 (edcfbbe)
C            5.68324205069321        0.59009261824151        0.79345465393375
O            4.97425613384023       -0.36007957351116        0.00136871493305
C            3.67574809073284        0.00187344499324       -0.31092321987452
O            2.91111566900663        0.06637924085911        0.87120208496918
C            1.56010674764403        0.41470888354392        0.64145195034370
C            0.91528254312168        0.66151393590097        2.02163054649513
O            0.46506401058385       -0.49613578988752        2.67141574034351
C            0.88508325120985       -0.68675935287087       -0.20372678974792
O           -0.46960165337793       -0.37803615326772       -0.48185949720555
C           -1.46353932089744       -1.14471006983443        0.14261561687366
O           -1.99672417816805       -0.48488478413355        1.25179969198841
C           -2.61151092271118        0.82203010674857        0.91568255075189
C           -3.06153875302441        1.59494646754788        2.11280562269947
O           -3.86288273758244        0.65780981849053        3.03299743316927
C           -3.75992625276707        0.58020048319327       -0.07363984266665
O           -4.33800848092854        1.80337768660914       -0.45556137230419
C           -3.23222463886374       -0.14499099207383       -1.31554174801970
O           -4.26458358465838       -0.46341980580189       -2.21998238380226
C           -2.58311533761336       -1.45580328245052       -0.86783839832953
O           -2.04777049205968       -2.20116226134081       -1.92139818547008
C            1.63706507000672       -0.82654276500279       -1.54510876640419
O            1.08742331618636       -1.81307542408598       -2.36689048885219
C            3.13083939620816       -1.06428860137602       -1.27650139435132
O            3.81546250841298       -1.02527006100513       -2.49764748740816
H            5.19119506991568        0.72418943165456        1.75733527150679
H            5.74220855109178        1.54844267376969        0.27040439687587
H            6.67482051456475        0.16839842683506        0.92783882652990
H            3.64867243441681        0.99480494941305       -0.81108374877721
H            1.52206891974708        1.35701727363543        0.07068220789910
H            1.68943643988920        1.09708290194268        2.65800381454005
H            0.10077941058720        1.38182886773183        1.90162253419626
H           -0.44089981378571       -0.67706228222885        2.36374616035635
H            0.95421005509524       -1.63369139689678        0.34954543912711
H           -1.05023123870919       -2.09355273002117        0.51293680207113
H           -1.85431743274599        1.42275042907429        0.39498245842430
H           -2.18265963720854        1.82536589581664        2.73482107356790
H           -3.51738786903670       -0.25633130899944        2.97878364609303
H           -4.80171008635282        0.68988549459128        2.76187389901511
H           -4.53242918632970       -0.06634244866476        0.37798974249450
H           -4.24261166455608        2.41443732662590        0.30081515018406
H           -2.46976544419403        0.47938537310478       -1.80505030634644
H           -4.76513337974938        0.34581160774968       -2.40055760311558
H           -3.34774522295363       -2.05358007624198       -0.34005165029625
H           -2.66242834376265       -2.14878903573334       -2.66988987274069
H            1.51918486807524        0.10333873426406       -2.11191043831619
H            1.23868138263553       -2.69172762646328       -1.98905696946425
H            3.25911946767848       -2.04169349731240       -0.78484438048727
H            4.75793879133889       -1.18806572241086       -2.33709265338654
