48
 energy: -84.847535472858 gnorm: 0.000485649283 xtb: 6.7.1 (edcfbbe)
C            5.61025154757421        0.81126146407930        0.74610216536621
O            4.92742246272473       -0.16516023907887       -0.03543879947788
C            3.61510464678583        0.15174469998677       -0.32772314431934
O            2.86701289257006        0.10381435309356        0.86869168279776
C            1.48476780297940        0.36437017469852        0.71251443415221
C            0.88604661192876        0.43154227659229        2.13552387161147
O            0.54947774922418       -0.82622326758146        2.66795390929667
C            0.85361889842714       -0.72243853716048       -0.18151352892864
O           -0.52117291053131       -0.46993080351305       -0.42977986851028
C           -1.46149107354162       -1.31449834210306        0.16799240190691
O           -2.01889899576199       -0.73233851421037        1.32000155828337
C           -2.69412831445784        0.49700392722130        1.05897196405076
C           -3.19610991750553        1.04722488405025        2.39051110884550
O           -2.09943599606861        1.57633700103478        3.09841611455165
C           -3.83975671991069        0.28567898341694        0.06211138223161
O           -4.44499033542044        1.52464817001765       -0.19087127834604
C           -3.28059299785927       -0.34144557753610       -1.22370637369368
O           -4.36466763703604       -0.55347181778567       -2.10176447393658
C           -2.57399792671532       -1.65132054105759       -0.84025276709711
O           -1.99090863894966       -2.32138021207604       -1.92275299187735
C            1.57884625777597       -0.72499460313890       -1.53700937576616
O            1.10794960679436       -1.70299774522529       -2.42511893980410
C            3.09937681744431       -0.86770157677774       -1.34927192204953
O            3.76548393120451       -0.64608862068857       -2.56274914115357
H            5.11770483961092        0.93916576016395        1.71141272663859
H            5.64172980926397        1.76653731496002        0.21440570038040
H            6.61422359643924        0.41982513305786        0.88004874131658
H            3.53926503909636        1.16960286934174       -0.76734207281135
H            1.35093084921668        1.34237122836500        0.22415745715964
H            1.66346417363980        0.85314475615895        2.77858038846417
H            0.01958654927912        1.09492968775232        2.13782867160917
H           -0.40260516446412       -0.96515002836120        2.53875450887998
H            0.98552293217580       -1.69205407560928        0.31608061402544
H           -0.99307012017224       -2.24686665316665        0.50882553852268
H           -1.98646878774180        1.21616541033409        0.62552702369592
H           -3.66606773894016        0.22806268656471        2.94638359380731
H           -3.93534104407910        1.82555215824344        2.17147893847087
H           -2.39803316124193        1.89132121964284        3.96327089512493
H           -4.57167603350487       -0.41454426872076        0.49687919653159
H           -5.07970095848599        1.40580435105465       -0.91589054187303
H           -2.54114242337486        0.33875382689911       -1.66258446573898
H           -4.04316363405930       -0.60175091091300       -3.01221470924753
H           -3.29581944793593       -2.29973027314431       -0.32101502904156
H           -2.68754812683041       -2.68731531245661       -2.48833739501214
H            1.37494972721979        0.23001524550857       -2.03554047376950
H            1.09767200550868       -2.57079678379512       -1.99650680277480
H            3.33733344942005       -1.86831505198225       -0.95496888170140
H            3.31082691884923       -1.15632383611193       -3.25440165498818
