48
 energy: -84.848717538923 gnorm: 0.000304218478 xtb: 6.7.1 (edcfbbe)
C            5.41948321055861        1.31498543846007        0.59962014244622
O            4.89983707248781        0.20619885074295       -0.13047896609093
C            3.53243206185506        0.22963316329796       -0.31771128615830
O            2.89270218196583        0.03943001898092        0.92691705384511
C            1.48169893191223        0.11341651929269        0.87150283701981
C            0.99504396143170       -0.15195266101124        2.30506946076023
O            1.41944150396741       -1.40353431358082        2.77395041369398
C            0.87266283238013       -0.90610124258752       -0.11162682073197
O           -0.47356032472697       -0.53798716913843       -0.38716791814773
C           -1.50104460224345       -1.34449117563894        0.11904616628241
O           -2.05773355497672       -0.79660154586083        1.28549751189331
C           -2.64858097614422        0.48868069109286        1.09975119026297
C           -3.14630038124210        0.98353821325473        2.47288391410062
O           -4.32749294661278        0.37143679319787        2.91496691516471
C           -3.77609365801022        0.41808357415618        0.05772244677378
O           -4.39468516954211        1.66237877727682       -0.15149135722668
C           -3.22843696386908       -0.16415626064163       -1.25192923380067
O           -4.25039955979170       -0.35614980622357       -2.20164496840648
C           -2.58884709788358       -1.52400695370975       -0.95638026756308
O           -2.01649752561180       -2.10545210834807       -2.09075321524401
C            1.62036561049755       -0.94975315404474       -1.45251206301839
O            1.24079950924241       -2.12861407089877       -2.11180442770580
C            3.14978457638188       -0.90585527891956       -1.27563428225948
O            3.78900274893378       -0.81609551316725       -2.51887352241892
H            4.99784962584183        1.34533788194145        1.60510575088715
H            5.19869412325738        2.25034777851953        0.07734135791460
H            6.49194042366240        1.15173058166295        0.64346829698380
H            3.20499156307539        1.20745199664830       -0.73780363012598
H            1.17327363896266        1.12079254043616        0.55055051042612
H            1.36275313869025        0.65076254566223        2.95547620863912
H           -0.09548193469920       -0.17108250287433        2.32419419579493
H            2.38766345987778       -1.42770864024949        2.74201491210902
H            0.91196981325795       -1.90663610494679        0.33450631366706
H           -1.11594994254511       -2.32797464970521        0.41198904228093
H           -1.86993193606065        1.17965969193243        0.74118360877818
H           -2.38319975456083        0.73407689078968        3.21260572620926
H           -3.26718488929126        2.07074772495997        2.42804359230593
H           -5.08022004275179        0.73429397637214        2.42651973139901
H           -4.56056106403613       -0.25294868111054        0.42539126707150
H           -3.73998170892306        2.30820370221377       -0.45624362197370
H           -2.45060462936486        0.50072382390272       -1.66175600684831
H           -4.85083249342456        0.40508980661612       -2.17282663125513
H           -3.36201823852596       -2.18547492655006       -0.53179666042758
H           -2.66721061373728       -2.06383145709043       -2.81010117560127
H            1.29959126629237       -0.06994001981271       -2.03564019451696
H            1.78196013281759       -2.22749501114352       -2.91143119973110
H            3.49033564618934       -1.84795929722241       -0.83423386418305
H            3.67973097263713        0.07054852588340       -2.89395518758482
