48
 energy: -84.848846906343 gnorm: 0.000435782635 xtb: 6.7.1 (edcfbbe)
C            5.48822106866257        1.27236257159190        0.51832061014763
O            4.91009220492713        0.17035656263561       -0.17581318254793
C            3.53902466462361        0.24114410749113       -0.34843962568738
O            2.89863706461119        0.13087048618514        0.90304941093291
C            1.48850788616502        0.22304047258765        0.82074123942072
C            0.95416491426167        0.10493629327032        2.25650014039322
O            1.01463763091476        1.31589712680942        2.96083735151550
C            0.88771143517014       -0.86146932090503       -0.09802473337012
O           -0.46382559839460       -0.52674263861068       -0.38256132110703
C           -1.48267161456415       -1.30731107485261        0.16768183567937
O           -2.04461927344301       -0.71148951941206        1.31267773796208
C           -2.59291208879856        0.58078600137288        1.08055185352619
C           -3.09231003326495        1.08143793426575        2.44576179793529
O           -3.60726310448290        2.38701044461975        2.39070508858726
C           -3.72381438970844        0.54457716985647        0.03661815046336
O           -4.11290867411246        1.84582976179440       -0.31719326068540
C           -3.24626279267098       -0.16931175628781       -1.23286068272409
O           -4.35571303682035       -0.36975050653581       -2.07025152674771
C           -2.59469103599672       -1.51604821877323       -0.88345373895180
O           -2.13076291359379       -2.06504733414909       -2.08510568746002
C            1.62708818235625       -0.96757996673902       -1.45055266440919
O            1.20502101417124       -2.11288854900051       -2.14153711723975
C            3.14448280586221       -0.93574167241909       -1.25495801880106
O            3.75283676003655       -0.83519915865999       -2.51215077730447
H            5.13761180634120        1.30062326429271        1.55025304183335
H            5.23975423677685        2.21058754124231        0.01519132976457
H            6.56010514303203        1.10001281623764        0.48936571668300
H            3.24534874485068        1.19938719529152       -0.82630804710534
H            1.20509950285556        1.20212787486842        0.40211190796398
H            1.52697449882830       -0.67887414976359        2.76566928539882
H           -0.09909538556286       -0.17749391753963        2.23148168493473
H            1.94047939417444        1.56708796112014        3.08624840115914
H            0.94007428009271       -1.83330089403004        0.41043418052231
H           -1.09721467770764       -2.27527182150254        0.51557907566768
H           -1.80559445936356        1.24643231530511        0.69651016054030
H           -2.27113469653982        1.00060760778542        3.16469837855610
H           -3.90902313866075        0.43610577874574        2.77682677384153
H           -2.87957463053880        3.02382121434638        2.35495418467168
H           -4.57995689231395       -0.02102031408097        0.43668706538074
H           -4.40161768441841        2.30526657075065        0.49237196247980
H           -2.49489057932341        0.46081454941814       -1.72959517321971
H           -4.05079911590390       -0.83685289784356       -2.86323714665375
H           -3.36208486094374       -2.15850247251581       -0.42251855341154
H           -1.72631304224973       -2.93038351325576       -1.93457262082014
H            1.32632187373386       -0.11326313636230       -2.06802249780905
H            1.82551640680581       -2.84125312678128       -1.99082068684056
H            3.46646821320923       -1.85372493938953       -0.73540153364658
H            4.71233898799847       -0.75764278062140       -2.39357971656750
