48
 energy: -84.852127662344 gnorm: 0.000478531482 xtb: 6.7.1 (edcfbbe)
C            5.48841963063375        1.19477317754981        0.48483789850684
O            4.89463938358884        0.11927015235002       -0.23714225565440
C            3.52251134018662        0.20441052073053       -0.39361672330800
O            2.89195327130912        0.07552822500247        0.86148963043797
C            1.48123436340819        0.17441727726023        0.79858217428092
C            0.97304637484892        0.02578200892924        2.23973368288884
O            1.14647048179636        1.19034243580805        3.00028989299484
C            0.85651900718693       -0.89050584230858       -0.12712807314607
O           -0.49640168191961       -0.54650927570186       -0.38995048001206
C           -1.50877973425074       -1.33177696140872        0.16799401802619
O           -2.04587257882304       -0.73119123217305        1.32487023290744
C           -2.60602824513624        0.55625607959142        1.07678815361448
C           -2.99682229479455        1.17870750962343        2.41871364110710
O           -3.02617124121471        2.57434062451858        2.24619836810620
C           -3.79219695780409        0.43420159552305        0.10359254144540
O           -4.48004525367144        1.63540127165650       -0.09716709229036
C           -3.26238050143699       -0.18172938750586       -1.20321583889741
O           -4.24217912263610       -0.31733182151863       -2.20136343846578
C           -2.63157418602094       -1.54348224379142       -0.86624267358891
O           -2.12264909315334       -2.18637476884620       -1.99841391606249
C            1.57823590989845       -0.97558974106604       -1.48054582957424
O            1.17486587558385       -2.16918963748896       -2.09600721707306
C            3.10355296697413       -0.94528360707992       -1.31825004371547
O            3.65844650663758       -0.80217842006437       -2.59865100965185
H            5.15271479609367        1.19074822637106        1.52197546910556
H            5.23789888274318        2.15040620150951        0.01660021462019
H            6.55874612046387        1.01771859021063        0.43483877638098
H            3.23327047805669        1.17652987813464       -0.84777497714331
H            1.19735042983837        1.16470645740004        0.40731536982887
H            1.49605934301255       -0.82464021998020        2.69404053333072
H           -0.09852952801828       -0.17557078524530        2.22861814968238
H            2.09236606614463        1.37986284954995        3.07535582951398
H            0.91458084353339       -1.87744859945087        0.34718094763116
H           -1.12006815100972       -2.30430824749396        0.49209081751185
H           -1.83819561072461        1.20119192633793        0.62446504685097
H           -2.24013159518932        0.88607092843355        3.15700965675073
H           -3.97488898403525        0.79588495146241        2.73197990474938
H           -3.29302743996132        2.99401306664982        3.07590270444756
H           -4.53058322206669       -0.25163947939724        0.54075116859876
H           -3.85886316140794        2.35181341317148       -0.29065440647251
H           -2.48347946327319        0.45772122617652       -1.63414421874515
H           -5.08740482452172       -0.57422541555220       -1.80497197574234
H           -3.39208489165713       -2.18230871162531       -0.38332856684308
H           -2.68142301063263       -1.94361432715186       -2.75656457989344
H            1.27550126572427       -0.10745929420311       -2.08474640493911
H            1.58461205359653       -2.22028003867617       -2.97322037197710
H            3.43055297318848       -1.88421672641710       -0.84762973197400
H            4.62487340983649       -0.78801585929324       -2.52573695072676
