48
 energy: -84.846340620810 gnorm: 0.000534415546 xtb: 6.7.1 (edcfbbe)
C            5.75345582381907        0.69591474038660        0.64716693200263
O            5.03798617679874       -0.28366105857743       -0.10028796755941
C            3.72322326124192        0.04392560980868       -0.36182912468338
O            2.99918373145151        0.00359364118743        0.85047112615348
C            1.62704447176988        0.30765114640697        0.70655778231350
C            1.01999694668229        0.39539871322872        2.12392560000783
O            0.67556544207958       -0.84433597753647        2.68371620703294
C            0.95655673390348       -0.74553869630404       -0.19116221256452
O           -0.40726002510108       -0.41442209589583       -0.43353075895416
C           -1.38975184957941       -1.22554805686385        0.15715170454867
O           -1.92286994909167       -0.67365367669440        1.32754242489774
C           -2.64175675706747        0.54698064719797        1.18693339509160
C           -3.13123963631469        0.87124277049356        2.61186573666142
O           -4.15332329548569        1.82175761207045        2.68505207444303
C           -3.79775685075457        0.42179892666852        0.18745796623689
O           -4.29789516254551        1.71407262016351       -0.04050167389942
C           -3.29336720697259       -0.17876493708424       -1.13313109665714
O           -4.42168367515222       -0.41101303099024       -1.94232236415595
C           -2.48675707765060       -1.45922169245369       -0.90798158727236
O           -1.91454644924239       -1.90280785849772       -2.11326829808161
C            1.66349277143135       -0.84371391778210       -1.54523778462157
O            1.24562373899733       -1.97583403623007       -2.27102422331186
C            3.18620303702448       -0.96990398347508       -1.38003316820151
O            3.83847303007051       -0.72756062926658       -2.59589043748960
H            5.29861385887184        0.83441984193506        1.62944079703882
H            5.76987781990966        1.64639226476788        0.10627328014958
H            6.76002753385780        0.30120917793577        0.74707296549037
H            3.64574588460976        1.06321777291399       -0.79852138621317
H            1.52567547137349        1.29360490977677        0.22247296871973
H            1.79018882815144        0.82895483387639        2.76661600924167
H            0.15550658436998        1.06289317285981        2.09435116319433
H           -0.25366196157927       -1.03666278557782        2.47970984208920
H            1.03395015097709       -1.71663723900608        0.31570753689125
H           -0.96534777516303       -2.19002574981170        0.46308137454510
H           -1.97219380452330        1.33544630304213        0.81326572080907
H           -2.26534845513613        1.17674679254477        3.21525589809317
H           -3.54000379391807       -0.04741710044626        3.04012377202664
H           -3.91230322690079        2.60613888379325        2.17105137665936
H           -4.57592102335782       -0.23412515538085        0.60231291016567
H           -5.04411629411527        1.65261694506625       -0.65466990325521
H           -2.63250183524111        0.56860962140135       -1.60628909142757
H           -4.17332195422978       -0.96559201039380       -2.69703697526571
H           -3.14826389030829       -2.25796240009937       -0.56042261439753
H           -1.48295334545795       -1.14686520115558       -2.54348685278442
H            1.45088008807055        0.07449936554253       -2.11657543256812
H            0.28607335004220       -2.10255443105368       -2.18676397019698
H            3.41946545863128       -1.97342190371218       -0.99830002638739
H            3.57365812312825       -1.41259962884448       -3.22975772179692
