48
 energy: -84.850987077012 gnorm: 0.000696250122 xtb: 6.7.1 (edcfbbe)
C            5.62750149593159        1.06535084932813        0.61715552221364
O            4.94801004639900        0.00096316823803       -0.04213084493056
C            3.60650733975430        0.22168324559824       -0.27792006411609
O            2.90945332106851        0.16691178627608        0.95111741202670
C            1.51323880874852        0.38881193659766        0.83909156649593
C            0.95871411551479        0.35335806674633        2.27042083387977
O            1.54516245180278        1.33631509394558        3.07920425235213
C            0.88241761404320       -0.68212752106165       -0.06383340344544
O           -0.47930520160985       -0.40616636066224       -0.35179663217133
C           -1.46290186239172       -1.22778549873594        0.21301034533357
O           -2.06130058619384       -0.65978796890270        1.33963007362105
C           -2.71916037754761        0.57755196445558        1.07563381554727
C           -3.23179879959471        1.12382939135092        2.40531325497894
O           -2.14219422529730        1.67493308074605        3.10658090916256
C           -3.85332113704270        0.37138800666753        0.06250496440888
O           -4.47072462023851        1.60608109228085       -0.18822704442371
C           -3.26788991978901       -0.23570029719374       -1.22010902165979
O           -4.25934771004563       -0.45886621898753       -2.19287999036052
C           -2.50880265757803       -1.52308199948357       -0.88124616624397
O           -1.83577429521757       -2.04757699486968       -1.99586591484220
C            1.59557827646317       -0.74739280988326       -1.42685458828382
O            1.14606925995097       -1.84446258584652       -2.17546460667438
C            3.11443245710401       -0.87140842372311       -1.24880204656683
O            3.80404858357449       -0.82714092005490       -2.46212859617838
H            5.23564777043459        1.20863441568792        1.62462161155339
H            5.52784649610806        1.99281866672910        0.04630364967178
H            6.66823308077193        0.75825934505647        0.65776440755281
H            3.44346750921038        1.22383988550266       -0.73364591549655
H            1.33187291930663        1.38166911782387        0.39798751766164
H            1.13522868435550       -0.64727615037793        2.68541933515082
H           -0.11204444315207        0.55935791497860        2.26821541257187
H            2.50104499781858        1.18315977552912        3.09840226160249
H            0.97887991090383       -1.65951217944363        0.42640013031616
H           -1.02513103281496       -2.17139305577655        0.56462314214200
H           -1.99903653049255        1.29506106299122        0.66071514246094
H           -3.68300462200981        0.29628475297294        2.96435323618656
H           -3.98601908985668        1.88884962497445        2.18604445206144
H           -2.44097921801742        1.98720071792487        3.97198832348126
H           -4.58355198728725       -0.33474638993782        0.49584270927709
H           -4.93525001117959        1.55583913633491       -1.03987112834477
H           -2.56752561886986        0.47775510466321       -1.66734041551287
H           -4.92098697241906       -1.08239694575509       -1.85485990926100
H           -3.21481608159155       -2.26654603701200       -0.47632713848332
H           -2.41800051865173       -1.97186117136005       -2.77012059738095
H            1.37198968708151        0.19220343617289       -1.96179297121033
H            0.17003064973736       -1.85818976288299       -2.17693675340752
H            3.35402408729592       -1.84584619262684       -0.81292128046451
H            3.54194095725277       -0.04458118990091       -2.97019822919266
