48
 energy: -84.736695467463 gnorm: 0.000593837820 xtb: 6.7.1 (edcfbbe)
C            5.64161954208114        0.86560392134463        0.66651078957591
O            4.96221853757424       -0.06598870401129       -0.17317161353352
C            3.62191231891016        0.20857140916631       -0.35998008131571
O            2.95227854413186        0.05774844194098        0.87334468691937
C            1.56636600232774        0.33158650707570        0.81370168534433
C            1.03104028003358        0.28456931409711        2.24498899153624
O            1.36899717370807        1.49597209482256        2.87853108655774
C            0.90600808221554       -0.69136928870019       -0.12394977299341
O           -0.47695845379237       -0.45242851116483       -0.31975998146064
C           -1.39930587333873       -1.35113198990770        0.24117978174137
O           -1.95235353566912       -0.88513676396048        1.43139575015696
C           -2.64558501908920        0.36025708018638        1.29618072113088
C           -3.06399279098243        0.80150928128424        2.69043627998989
O           -3.48591023757474        2.27981667875047        2.47850300569809
C           -3.80056233160963        0.16894258171055        0.28400864194290
O           -4.49616922443613        1.38865193736429        0.13898020062759
C           -3.25629290758560       -0.31547468248790       -1.06547805530000
O           -4.29363817612713       -0.43184212249407       -2.01093441413764
C           -2.48442128350825       -1.61593050690673       -0.83393517093273
O           -1.89929100292801       -2.04342881248891       -2.03800968846576
C            1.55377848590431       -0.61316751512933       -1.51939410746471
O            1.04445439111793       -1.61300101029827       -2.36127917046659
C            3.07754761185139       -0.77173811177238       -1.42141555684999
O            3.71554740521089       -0.60791762732364       -2.65283610459728
H            5.18386819794913        0.89039324976052        1.65644951212086
H            5.61482163208471        1.86471793423114        0.22222187729960
H            6.66372248986962        0.50460942982273        0.72583495774726
H            3.47864936770139        1.25464156126955       -0.71529214227352
H            1.40263264866875        1.34539503043665        0.41509729528343
H            1.50326257546011       -0.56587412322427        2.75255865883330
H           -0.05437082911912        0.14505361424403        2.22691145333424
H            0.95716868777910        1.51469831145157        3.75462617534348
H            1.06691013118949       -1.69602609313330        0.28787759005095
H           -0.90172844843632       -2.29394755508268        0.51073186238175
H           -1.95437556592470        1.10909985744366        0.87691658258067
H           -4.01706802375555        0.27143809473052        2.91865405388087
H           -4.13506754341718        2.35360489023185        1.73725762869417
H           -3.87514576305868        2.57626082565363        3.32377049357449
H           -4.48836675215765       -0.59887998630995        0.68423328694809
H           -4.95101450779354        1.38352978226220       -0.71752518299718
H           -2.56910175651087        0.43257204265851       -1.47400527527095
H           -4.81245534452370       -1.23079171455500       -1.83932914480924
H           -3.17676866873899       -2.37020507037205       -0.43364142529582
H           -1.69890281567570       -2.98985837122184       -1.99572705741935
H            1.32444375091694        0.38248364555790       -1.93533717900899
H            0.07346715101366       -1.51902118760902       -2.40583505834915
H            3.32025400441036       -1.78947951384841       -1.10230351012235
H            3.48781084327744        0.25112476101465       -3.03968933821383
