48
 energy: -84.845135415214 gnorm: 0.000745081947 xtb: 6.7.1 (edcfbbe)
C            5.61114489737879        1.03622613936715        0.60753783380123
O            4.97977597001337        0.02186032523192       -0.17104445264058
C            3.62517423592226        0.20675950335998       -0.35608997590417
O            2.97289245795479        0.07766739292706        0.89000580808428
C            1.57825153091974        0.29195703558952        0.83958295438808
C            1.06156909081468        0.19273316310049        2.28097296425718
O            1.52891826047823        1.22583947982727        3.10573479859002
C            0.91820748461601       -0.74187932470447       -0.08988945612671
O           -0.44746959148884       -0.43878029874974       -0.33425997775703
C           -1.43433318144414       -1.26760504744728        0.21956071183975
O           -1.99687454464599       -0.72937943789069        1.37698991594813
C           -2.68185649953553        0.50919014286126        1.19205842492816
C           -3.19289117439341        0.93537894623871        2.58026143424826
O           -4.00438229631192       -0.01266042684174        3.21816723092186
C           -3.79865676898191        0.38455283125300        0.13707592724706
O           -4.34664184397842        1.63574533001379       -0.20240825544421
C           -3.21165123227871       -0.18899963830405       -1.16101890228431
O           -4.21443018470610       -0.44899944963369       -2.11125276595587
C           -2.49846340690382       -1.50828524971113       -0.86392438440706
O           -1.85141199023388       -2.02396998182444       -1.99576349414190
C            1.59581749737375       -0.75592902838408       -1.47402496976312
O            1.13935665878229       -1.83631863103225       -2.24203259444264
C            3.12325941986330       -0.85836826310686       -1.35278527856367
O            3.76698281938296       -0.75922410688218       -2.58799360543995
H            5.18011847766295        1.07248385358481        1.60945523074136
H            5.50268316017047        2.00966263162118        0.11994063479004
H            6.65790873901775        0.75207854627481        0.65351909240445
H            3.41805797424746        1.22391660739357       -0.76066140151663
H            1.37405471395710        1.29749443964347        0.43227509818437
H            1.44537390946310       -0.72994171094193        2.72039574224045
H           -0.03379139595111        0.15805637602858        2.26962085994077
H            1.24989518310637        2.08413044634616        2.75554623274171
H            1.01736755695380       -1.73840743085886        0.35787569404013
H           -1.00320918695558       -2.22781040258984        0.53060428630586
H           -1.97405206483845        1.26895112599003        0.82929690706985
H           -2.33265510401813        1.05849122662011        3.24050408636592
H           -3.70734295918298        1.90043589259100        2.48707048427400
H           -4.78291422832024       -0.21369277768310        2.68179917508032
H           -4.57820694810092       -0.30768767704085        0.48667859324575
H           -4.87158276281182        1.99279936400203        0.52699368368144
H           -2.47733943359162        0.52718885568036       -1.55846113724175
H           -4.70765480385911        0.36961292986567       -2.27001123428250
H           -3.23340734217109       -2.22978944843861       -0.47649966267585
H           -2.49515006257187       -2.04736911302165       -2.72262913550869
H            1.34095101205910        0.19574883817405       -1.97271309765865
H            0.16373793027729       -1.84980402794570       -2.23637415289092
H            3.39389956803721       -1.84291628592466       -0.96018790445865
H            3.47457045779121        0.03540532350465       -3.06023195558921
