48
 energy: -84.856842851655 gnorm: 0.000373314944 xtb: 6.7.1 (edcfbbe)
C            5.48643877426907        1.11202925339068        0.58223128258895
O            4.84370533578413        0.06778247576405       -0.14365536714083
C            3.48595828208547        0.24097191497037       -0.34351767230902
O            2.81549335484997        0.16500937045037        0.89590407714377
C            1.41176892181225        0.32189984845923        0.79238675225192
C            0.84336599443490        0.27372820531708        2.21967077497889
O            0.84951907027983        1.52299972018270        2.85675327744350
C            0.81471968894176       -0.77889783429615       -0.10032033513576
O           -0.55301908465921       -0.52674756539547       -0.38024547007998
C           -1.52560708207833       -1.35624097779645        0.19146082792018
O           -2.12098623508634       -0.78103764475873        1.31786927917892
C           -2.79465933387237        0.45448368120317        1.06555565027027
C           -3.40059142733079        0.89760373068977        2.40550517680288
O           -4.23155245677532       -0.08806691215221        2.95952580362348
C           -3.88713306437617        0.28735314621701       -0.00921559006068
O           -4.53608211027926        1.49935401045587       -0.28203932142850
C           -3.27463060002186       -0.33791220084243       -1.26983623560727
O           -4.20716771267854       -0.54126186701962       -2.30158203453930
C           -2.57449601358617       -1.65306266847280       -0.89344196026248
O           -1.91521373441125       -2.22540915067660       -1.99281006506491
C            1.51694721008157       -0.86123651953483       -1.46765486776737
O            1.13839167183099       -2.03643503445363       -2.13420145896658
C            3.03839035372272       -0.86811455199848       -1.31371287980605
O            3.60866797542883       -0.65818080248562       -2.57611859655372
H            5.13088650757082        1.13665594532439        1.61248961802983
H            5.30346689306238        2.07691347325401        0.10163299654459
H            6.54506893311610        0.87104427418448        0.55525061274222
H            3.27582547736922        1.22965566576200       -0.80645036093726
H            1.17725556016570        1.29788117414707        0.33744129517727
H            1.41921999928056       -0.46743344049911        2.78562571622560
H           -0.20170292948416       -0.03550650225377        2.18229219454760
H            1.76216436825365        1.80319944066535        3.01333182605252
H            0.93209823153423       -1.74746567822239        0.40342303686679
H           -1.08029189618538       -2.29491337241383        0.54629839749325
H           -2.06427096631536        1.20262330749921        0.72835341438133
H           -2.58789823323514        1.15851477711515        3.09389759990006
H           -4.03089029018831        1.77168494512876        2.23419978486425
H           -3.69948425144771       -0.88181184712953        3.11541557436338
H           -4.66601184403711       -0.37202106814726        0.39411174612649
H           -3.93260747870594        2.10561604608945       -0.73558577310993
H           -2.51437108875536        0.33605390712241       -1.68400539135579
H           -5.05009789480412       -0.84508737902347       -1.93485738742674
H           -3.31035783319763       -2.35941286173660       -0.47837379414530
H           -2.50372856014054       -2.15378841560221       -2.76326487356103
H            1.23599042952665        0.02302085375797       -2.05985965116051
H            0.16620987939065       -2.06745248923646       -2.20224974897116
H            3.34396766488951       -1.83643919607359       -0.89505065563817
H            4.56910453851392       -0.77256720747874       -2.51215518737400
