48
 energy: -84.707592539125 gnorm: 0.000516561793 xtb: 6.7.1 (edcfbbe)
C            5.67455854679758        0.73738724923535        0.65484539314765
O            5.00457480400450       -0.14999535012652       -0.23825107366685
C            3.65374262034045        0.11658526427635       -0.39328989755350
O            2.99879257572188       -0.06163455698078        0.83095004453401
C            1.60619801991334        0.28659271328961        0.79522878312303
C            1.12194448377402        0.34187766334880        2.23584132565552
O            0.01658723246744        1.35911538891582        2.28089791571977
C            0.94436299720069       -0.71254316486744       -0.19449787734483
O           -0.44307167540519       -0.45763951873049       -0.38985042737040
C           -1.37284775069056       -1.36359373646149        0.12422582942401
O           -1.94476021895931       -0.95748575911041        1.33350943294013
C           -2.59717416917961        0.30203673780444        1.23706411385002
C           -3.06503151899365        0.66803288663566        2.64262868781349
O           -3.64912600298526        1.98593863537523        2.60227817576494
C           -3.77357543713678        0.19793786457273        0.25367057676401
O           -4.44065505012425        1.44087007684348        0.23368794540242
C           -3.21993901921915       -0.20885568659930       -1.12234738388935
O           -4.26343626894837       -0.39498783169190       -2.05680449910243
C           -2.47339376404758       -1.54026552708934       -0.94482654664064
O           -1.85954507307695       -1.96586446733495       -2.13146306399015
C            1.58954776962105       -0.64529647206520       -1.58491061128678
O            1.07811287523032       -1.62840819064854       -2.45221460098894
C            3.10660222830605       -0.82969204190502       -1.48006988046907
O            3.75970769854757       -0.65706071157284       -2.70486786658769
H            5.20771161799649        0.70316041801681        1.64060554558397
H            5.63899067170067        1.75925211020325        0.26456994466842
H            6.69841006056510        0.37902366614832        0.69743786467594
H            3.50504177255057        1.17449591919076       -0.72603580671753
H            1.52064199565667        1.29866422104131        0.35137487155182
H            0.58578821869080       -0.62904514516727        2.44514885049052
H           -2.18229845905273        0.68732104861616        3.28224810322319
H            0.39379821915372        2.10282245082265        2.76809933947443
H            1.08620271825371       -1.72160137189633        0.21809461903539
H           -0.89916983699994       -2.33154479316650        0.33768240375042
H           -1.87432805668668        1.05313544839133        0.89222880446705
H           -3.77394069038056       -0.08231757275407        2.99276808147689
H           -4.21938034705715        2.14344106557760        3.38857408834758
H           -4.16548934788870        2.05034069234727        1.72415319857364
H           -4.45324047533164       -0.59881777758879        0.58842824312696
H           -5.24390354708879        1.37831275421587       -0.30567057010806
H           -2.49519458518040        0.53757494298152       -1.46315785450225
H           -4.33188459138178        0.36968654826101       -2.64390350613655
H           -3.17889986530722       -2.30273052852132       -0.58301090544053
H           -2.54579890480072       -2.04722187080473       -2.81484086089254
H            1.37900687892505        0.35830148502192       -1.99794956355471
H            0.10551232071957       -1.65655500623695       -2.36741694103685
H            3.32502204849108       -1.85692266097316       -1.17304562481750
H            3.55800428933349        0.21847352880387       -3.06937188176665
