48
 energy: -84.746406900787 gnorm: 0.000694052321 xtb: 6.7.1 (edcfbbe)
C            5.53737366965143        0.92621932634845        0.73794601588240
O            4.91387870720272       -0.13718388846828        0.02017440840397
C            3.57865747668005        0.07467187202416       -0.27245875616145
O            2.83704932652425        0.10060437315860        0.92432098555816
C            1.46194033813931        0.34854694117965        0.72417456208744
C            0.83297744372273        0.47045700549228        2.11901466953727
O            1.35147977939715        1.53968278177457        2.86226631583198
C            0.82075237578089       -0.77686833824008       -0.11702219396330
O           -0.51170772057663       -0.44608781872896       -0.46824542795748
C           -1.56494753616626       -1.15773525726437        0.12623536925163
O           -2.13877895386034       -0.44499589273230        1.17639964155385
C           -2.70917116973008        0.84886877676341        0.76573769757325
C           -3.22933836632021        1.64712454720790        1.92694439932043
O           -4.00092192430119        0.68552478845843        2.84776891168703
C           -3.80305657564607        0.60260981427723       -0.28364639964045
O           -4.33016580174277        1.82678792528116       -0.72919163380240
C           -3.21641732264740       -0.16849640209008       -1.46925737093375
O           -4.19454943499439       -0.49059577561378       -2.43086056466215
C           -2.62964460104139       -1.47890793083467       -0.94008702507216
O           -2.05335265497514       -2.27262185669377       -1.93511401231229
C            1.60639641698119       -0.97100051550567       -1.43682280974614
O            1.12645680210077       -2.05402879821649       -2.17766230739094
C            3.11395390944495       -1.08491698795578       -1.16744099913387
O            3.78443229453368       -1.07177712701638       -2.39689905840279
H            5.04644836784940        1.07476069323943        1.70050771041112
H            5.49593043183426        1.84945688325265        0.15338213677603
H            6.56713382759896        0.61252648539563        0.87952008737083
H            3.43780356355911        1.03653598142173       -0.81167686481354
H            1.33362686048285        1.29360903348921        0.16981768795604
H            1.07579113645883       -0.42827972821425        2.68934645115105
H           -0.25295987781955        0.55201621333639        2.01190953095321
H            1.15471679200743        2.37749212917329        2.41929623853314
H            0.84162726538837       -1.71211264994548        0.45814427927480
H           -1.19887354772288       -2.09769165422317        0.56272651867121
H           -1.91896399135033        1.43378335854056        0.27568233258794
H           -2.37422295257147        1.92245823851523        2.56543946720333
H           -3.56767153053106       -0.19399857349161        2.83571407658806
H           -4.91900948901537        0.62073579960712        2.51887031933644
H           -4.61438384318249       -0.01512831309323        0.13905874474341
H           -4.30629359511470        2.43934714155737        0.03144364599659
H           -2.40883333928064        0.42297460289930       -1.92599134841759
H           -4.66295319042340        0.32441312207335       -2.66564833744329
H           -3.44020687546176       -2.03895767918158       -0.44038437363901
H           -2.62272759845300       -2.23063081959279       -2.71938373099619
H            1.42587973739227       -0.09686879458337       -2.07196817615581
H            1.38153115908780       -2.88898578307492       -1.75812223903693
H            3.31654592152395       -2.01810861361241       -0.61786834873183
H            4.73867930212162       -1.13976857289783       -2.23717439543656
