48
 energy: -84.847648497490 gnorm: 0.000933881048 xtb: 6.7.1 (edcfbbe)
C            5.62966263035549        1.00882150627492        0.63578060466518
O            4.98309112858883       -0.03809163993964       -0.08418317828809
C            3.64401930790947        0.18854100659292       -0.33256319503373
O            2.94409376127789        0.08796606357609        0.89017733045333
C            1.54874354338349        0.28889592786870        0.79205837680058
C            1.01758495508080        0.28063141960867        2.22893211822824
O            1.13670426537975        1.58322233404184        2.75654835250662
C            0.91327927230527       -0.79848222095876       -0.10074985666914
O           -0.46054183350582       -0.53790433787720       -0.33727273423744
C           -1.42169216703803       -1.36792160303092        0.25873364590911
O           -1.97188280962577       -0.77864243457158        1.40388488453818
C           -2.63977169888864        0.45883695057988        1.16030322921263
C           -3.28075137123193        0.89174596797460        2.48173503115173
O           -4.29803005006679       -0.02008467424430        2.82167572959803
C           -3.70647208048928        0.35533558019112        0.05550609423112
O           -4.22422372803186        1.61931310680740       -0.27775369434035
C           -3.15165707172199       -0.35183753786519       -1.18865055852626
O           -4.16615779146804       -0.61901109856606       -2.12775877052938
C           -2.52569581432773       -1.67897030280667       -0.76254603325762
O           -1.96706733235379       -2.39587040600902       -1.82473572387603
C            1.61746715225262       -0.78239561604725       -1.46983112248640
O            1.16054829662421       -1.77294593032931       -2.34999295439572
C            3.14750323914962       -0.87020538225756       -1.32292101604435
O            3.76887146520908       -0.64773415645818       -2.55905897163654
H            5.14843185225426        1.15947275955887        1.60360446841124
H            5.60093776680278        1.93730137239179        0.05856661912663
H            6.65520894215225        0.67714018763788        0.76663932721686
H            3.48378415705835        1.19622021710192       -0.76996841388479
H            1.34065693944190        1.27338159649537        0.34573597153357
H            1.62250430154903       -0.43595643066223        2.79242398884162
H           -0.03098902461316       -0.03834199099408        2.23575236966645
H            1.16638556828196        1.54149176932795        3.72231133000349
H            1.04287709668864       -1.77822420206012        0.37718499758346
H           -0.97059568968528       -2.30620697462131        0.60629105475902
H           -1.89016942431662        1.20824358675100        0.86176198370506
H           -2.50106679590684        0.91023471356125        3.25065115439696
H           -3.69184522200407        1.89905378454704        2.34326992423754
H           -4.68799333481014        0.24362101991819        3.66625960437592
H           -4.55466047112223       -0.22118803508845        0.44148980275903
H           -3.50771275918902        2.19841849757073       -0.57950855449858
H           -2.36168753976394        0.26474878378911       -1.64709899047659
H           -4.73106434313205        0.16481661815308       -2.20674471092689
H           -3.29300244747976       -2.28204458496708       -0.25027411075676
H           -2.59269104778595       -2.37426588159910       -2.56615779613867
H            1.37185848735588        0.16627830846365       -1.96201741473199
H            1.15917877300677       -2.63892730075795       -1.91801301549042
H            3.43334740854509       -1.85458477855463       -0.91881732630719
H            3.29915653878160       -1.16912758276196       -3.23203081953758
