48
 energy: -84.849852128655 gnorm: 0.000615104253 xtb: 6.7.1 (edcfbbe)
C            5.59283701684228        1.03040563405764        0.57533473251001
O            4.94415472412259        0.00658261480232       -0.17565293719564
C            3.59380849924720        0.21260115142372       -0.37401450986876
O            2.93536317575206        0.14514090287151        0.87396975267743
C            1.53903995156077        0.35523635076476        0.81965665798101
C            1.03000586949399        0.31038736332068        2.26746836405296
O            1.49919906287464        1.37505669764525        3.04934632447377
C            0.87565775247288       -0.71913818402626       -0.06311379900329
O           -0.49488122331745       -0.44741234289395       -0.30211464366218
C           -1.46786182147369       -1.26767884900417        0.29724142561285
O           -2.02140971185767       -0.68127174652048        1.43693068709807
C           -2.73275149498395        0.53030298003403        1.19704971172936
C           -3.36336480429562        0.95707463390314        2.52434575340280
O           -4.36033954068953        0.03005866096396        2.88311433823669
C           -3.80407911464300        0.37635556580165        0.11061232159211
O           -4.32067457080638        1.65637160621823       -0.16195510514985
C           -3.19932806424050       -0.24830917116443       -1.15872610667723
O           -4.17458705572129       -0.37394372433574       -2.16347970697571
C           -2.53228990292589       -1.57467935397898       -0.77579894273881
O           -1.97835732816934       -2.26367482287153       -1.85892956572402
C            1.54801971192024       -0.73353803251730       -1.45408027265037
O            0.97045510667344       -1.70326600058056       -2.28624963524471
C            3.06969177947119       -0.89105830144581       -1.31535227519724
O            3.71820415859543       -0.90814806022834       -2.55184817063324
H            5.15770508070069        1.10573510616736        1.57310882061264
H            5.50673848991729        1.99092463290916        0.05900404829273
H            6.63324844236903        0.72634186422769        0.63556683794739
H            3.40808144898720        1.21376410889179       -0.82488972492861
H            1.32800255784713        1.34224362888719        0.37521254596474
H            1.42025711617674       -0.59316328480637        2.73995214359452
H           -0.06502878452222        0.27139237323005        2.26095952455257
H            1.18098578612310        2.21670543265832        2.69274616347520
H            0.99296977943724       -1.69842947527418        0.41720347583177
H           -1.01957835357522       -2.20538164304746        0.65243488170201
H           -2.03102799240655        1.30870180019074        0.86524472518994
H           -2.57469895604261        0.99027102470046        3.28472787426838
H           -3.79082441298259        1.95610436781210        2.37925864377664
H           -4.72643041867974        0.28023851160928        3.74298725009465
H           -4.59874254475273       -0.28134987559660        0.49680456527680
H           -4.80343777758215        1.60836904954656       -1.00303573608911
H           -2.44197736177288        0.43218348775431       -1.56481483427009
H           -4.70241216341555       -1.17175986212116       -2.01498004437071
H           -3.27999602289695       -2.24621276762676       -0.33751191416759
H           -1.17848094117870       -1.80280722050558       -2.17160715567550
H            1.31928113428667        0.22592252732180       -1.93571866023896
H            1.38423708425510       -2.56569789956820       -2.13578058168171
H            3.31106590210577       -1.85224395647702       -0.84785944811436
H            3.56782673201176       -0.07927452482814       -3.02998177136634
