48
 energy: -84.850348955368 gnorm: 0.000824369151 xtb: 6.7.1 (edcfbbe)
C            5.70999909044979        1.03068374382033        0.51613972917859
O            5.02233727863198        0.00308887016293       -0.19251111539479
C            3.66387477194458        0.20762368205343       -0.34935586580312
O            3.02474447571103        0.09273575113016        0.90351538287346
C            1.62453281328562        0.30418055449185        0.84134136124953
C            1.10691042400191        0.22620037591762        2.28238878354985
O            1.57770365212838        1.28313246925260        3.07230735454468
C            0.97181192559144       -0.74535345077779       -0.07055155536539
O           -0.39705285900098       -0.46366601989200       -0.31252145416733
C           -1.37322507825743       -1.29540913556463        0.24933054314738
O           -1.95292272719664       -0.76841597113107        1.40561159629072
C           -2.63212659436737        0.47632385889561        1.21797026926242
C           -3.22073108177085        0.84876332194180        2.58927862165196
O           -2.25560056247198        0.86877589622632        3.60587552066455
C           -3.73529638935811        0.36753067616431        0.14404793759803
O           -4.28622126869364        1.62166858757392       -0.16342620108125
C           -3.13661275376274       -0.20582202788274       -1.14772997459815
O           -4.07975190337489       -0.37624136646191       -2.17291555962050
C           -2.43831254294648       -1.53690410535602       -0.83300333019742
O           -1.80721433441634       -2.07084615680870       -1.96671836080867
C            1.63970506269970       -0.80331750793353       -1.45774144633876
O            1.21528293199411       -1.94884279377684       -2.14777324451804
C            3.16438657864403       -0.85458341503428       -1.34541800835962
O            3.70692944112385       -0.61550802993254       -2.61507584943829
H            5.36977991787116        1.07839202996699        1.55069364277790
H            5.55341368316588        1.99722438496757        0.02943832775816
H            6.75927892358341        0.75324625541821        0.47733517941858
H            3.45864807832730        1.21644896111473       -0.76744575639360
H            1.42071693978142        1.30575905798779        0.42992259080918
H            1.40618611944128       -0.74162568473602        2.70421793472181
H            0.02042412642100        0.30673920504200        2.28483972984832
H            2.54397222013898        1.24060277744006        3.09955622165084
H            1.07982500039087       -1.73356551465366        0.39772997555655
H           -0.93499624507615       -2.25299117487736        0.56168053660522
H           -1.90734460945202        1.23712716302066        0.89851598708609
H           -4.01922310429631        0.13685954609799        2.83490784975871
H           -3.62564920245264        1.86045733129151        2.54701723796099
H           -1.89830226266429       -0.02417741741700        3.70984855982405
H           -4.51057610184140       -0.32687785427953        0.50531233159165
H           -4.88965536174422        1.91073232416325        0.53420379869328
H           -2.39605208201638        0.49862356498027       -1.54024257712214
H           -4.89324611123297       -0.76677563613887       -1.82123022881634
H           -3.17489497916528       -2.25410721444769       -0.43585931371447
H           -2.39053538628936       -1.91896814120253       -2.72981522417872
H            1.36623294975334        0.10510110865839       -2.01569902922779
H            0.24088754157683       -1.95163926955186       -2.19558917692516
H            3.45491401681877       -1.84470003674268       -0.96923500179082
H            4.66457858047214       -0.75993161197888       -2.58230568856891
