48
 energy: -84.734837366139 gnorm: 0.000830067960 xtb: 6.7.1 (edcfbbe)
C            5.56633742767993        1.09962102364615        0.41582114967286
O            4.95635199731407        0.05929359184644       -0.34618774523654
C            3.57843043948028        0.14872804595451       -0.42749352433909
O            3.02473514407639        0.02177563412774        0.85477510288667
C            1.61628994929553        0.20603142851863        0.95428813620959
C            1.41824297255823        0.10121239682169        2.46229341261966
O           -0.00435737689929        0.50618230517864        2.85734280303857
C            0.90125135051469       -0.82677282118698        0.02506996241255
O           -0.46458825824710       -0.49853855442433       -0.24170324975880
C           -1.48029469164296       -1.28162950330023        0.31708922488459
O           -2.03068566124773       -0.65301004972354        1.44544320440807
C           -2.78562045435475        0.54497896824352        1.17440313116084
C           -3.50246862968274        0.91446051784289        2.48499349650459
O           -4.37436357086575       -0.09923654924996        2.91182257876905
C           -3.81878375699742        0.36902286918239        0.04385749608503
O           -4.44053871477367        1.59590568656654       -0.23408538863911
C           -3.14853799625325       -0.24367927196850       -1.19785085138664
O           -4.02597238897974       -0.35172411512343       -2.28329366289844
C           -2.52849214908571       -1.58447508936794       -0.76529533678368
O           -1.97268631770506       -2.32162157012144       -1.81495883548000
C            1.53670456982238       -0.86023252983204       -1.37441628656647
O            0.95448394977073       -1.91987204866626       -2.09721857646370
C            3.06132048824214       -0.98472250132377       -1.32013533516651
O            3.60326587588081       -1.00185381380594       -2.61289982673410
H            5.19829296164524        1.08179284789329        1.44222220750148
H            5.35437035931700        2.07221529047421       -0.03835889182701
H            6.63097589765744        0.88998157534005        0.38467316923794
H            3.27695174799553        1.13416876137560       -0.85866167342164
H            1.35466953931137        1.21227831457548        0.57577374560429
H            1.44710729874792       -0.97302527207924        2.72272951145328
H           -0.73593593156494        0.05618343350774        2.34983499589808
H           -0.04360025220249        1.47647226266869        2.76755860229971
H            0.97347359426787       -1.82804644931088        0.46801005960258
H           -1.07046137107959       -2.23064066882602        0.69427216614006
H           -2.09865598833019        1.34819816696907        0.87740349003943
H           -2.76844270892936        1.14024961959408        3.26568946617589
H           -4.12217947747041        1.79280208571811        2.29641611067903
H           -3.85412621699312       -0.88302235528272        3.13879681030623
H           -4.61811186776774       -0.29229963095117        0.40082184716365
H           -3.90872444896952        2.10389204073945       -0.86335594456590
H           -2.34403515712397        0.41438609465791       -1.54896049436136
H           -4.72711060290235       -0.98850722662559       -2.08576115667997
H           -3.30867874799387       -2.22245728978031       -0.33285102153590
H           -1.09040235583424       -1.97835724084187       -2.04212232874339
H            1.28110194085410        0.09427041078099       -1.86811382959507
H            1.53525705219036       -2.13145210036565       -2.84633095702363
H            3.34372354698574       -1.93514607834652       -0.85503646577269
H            3.69857399214689       -0.10108464758402       -2.95473647754097
