48
 energy: -84.850829662797 gnorm: 0.000580473038 xtb: 6.7.1 (edcfbbe)
C            5.53025838408197        1.03329613363774        0.63355907637260
O            4.88366617476759        0.00650280799844       -0.11301295399705
C            3.54146468991495        0.22394605241239       -0.35440018636034
O            2.83949065414602        0.10322557909922        0.86603026680509
C            1.43900613046047        0.25947931690449        0.74396630887013
C            0.85402141124550        0.27609203012755        2.16822978992085
O            0.46880475040141        1.56617510366971        2.57291470421336
C            0.84298702112031       -0.84960452312871       -0.14968676276975
O           -0.53580571360350       -0.59187683429868       -0.37215011877228
C           -1.49304467947385       -1.42584863741504        0.21518001317025
O           -2.04462946974489       -0.87984499317106        1.38673508904460
C           -2.62317727293801        0.41000719688504        1.22087323524324
C           -3.16202062053089        0.86094498228601        2.58264954519197
O           -2.18906775718629        0.93387833039664        3.58863877794014
C           -3.74669252408895        0.38415079524453        0.17686733587767
O           -4.16394396373097        1.70495948529260       -0.04446546638757
C           -3.25189685584659       -0.27207048392536       -1.11866768246841
O           -4.35497714962041       -0.38500054467390       -1.98458235094877
C           -2.63982650109575       -1.64227938992052       -0.80205273932217
O           -2.22098158244296       -2.21151091663454       -2.01090603421718
C            1.55071590333626       -0.86130383099175       -1.51553769604134
O            1.16826972783147       -1.95388806623179       -2.30856144836587
C            3.08275999257640       -0.82763484835783       -1.37177187921798
O            3.68734983658759       -0.51517318374169       -2.59747293063711
H            5.11659837910160        1.09134432929975        1.64152851617514
H            5.42068824837315        1.99677317609782        0.12825855532088
H            6.57661261463785        0.74490433023514        0.67075714090250
H            3.36909620032629        1.23479228224700       -0.77955812012531
H            1.21187723226233        1.22180007564780        0.25611887644568
H            1.60207955227037       -0.15108436426740        2.84307750068404
H           -0.05119764617427       -0.33104710075266        2.21529094996539
H            1.25157179910436        2.09886703459428        2.77072758301228
H            0.97814365970735       -1.81919971969957        0.34864391838028
H           -1.05529203493992       -2.38330833564961        0.52680935977211
H           -1.85042106258874        1.11313353510262        0.87899295619022
H           -3.89436507855853        0.13098532149477        2.93511075341108
H           -3.65542065150534        1.82997657419855        2.43296366403703
H           -1.42036343092788        1.44011333346565        3.27342964180043
H           -4.58363864244277       -0.22116002191244        0.56153908675273
H           -4.80442254004116        1.70156222129358       -0.77311403646476
H           -2.46921052434522        0.35443912496894       -1.57027057790512
H           -4.07684940932422       -0.88275980741813       -2.76824666524299
H           -3.40406715727587       -2.26124874375989       -0.30957167729586
H           -2.01488941117626       -3.14867037522622       -1.89110284839699
H            1.22328552516868        0.02480447455039       -2.06998914662241
H            1.46943687486899       -2.77761780915181       -1.89549985869761
H            3.44130403568497       -1.80147237891584       -1.00063432735374
H            3.32998487698177       -1.10377575515073       -3.28254310922247
