48
 energy: -84.855111400664 gnorm: 0.000474421447 xtb: 6.7.1 (edcfbbe)
C            5.65447252781274        0.83024013665783        0.55723436725724
O            4.95475473951691       -0.13629450757834       -0.22383685714266
C            3.61421365581116        0.14158736197840       -0.41870715226626
O            2.94378655787784        0.09865427471474        0.82108843894468
C            1.55847534990462        0.36817502027421        0.74019287001830
C            1.02263157382435        0.36362125880174        2.17754964125789
O            1.52359777681894        1.41652349711745        2.95577512201335
C            0.86819626920649       -0.68710260419714       -0.14533177495861
O           -0.49672026889556       -0.39398405855865       -0.38642442596594
C           -1.47701655435950       -1.20491312415322        0.21238895549305
O           -2.02570170609167       -0.61524338414052        1.35512607321093
C           -2.72108422858321        0.60492747165335        1.10755241477702
C           -3.31131684697944        1.03078147323763        2.46335095828452
O           -3.93494586585628        2.28804507132611        2.41895130080176
C           -3.82483297700137        0.46881046538063        0.03938701205511
O           -4.31860675911571        1.73629160064942       -0.30752378424778
C           -3.26575470848875       -0.19185149644180       -1.22629774475031
O           -4.32836452117752       -0.45256875924172       -2.10782207296832
C           -2.55160121977786       -1.49901645013145       -0.84378888516101
O           -2.01428863328431       -2.14209718913914       -1.96744176110719
C            1.54782677860743       -0.72883058310372       -1.52264691154837
O            0.95452167127585       -1.76382264223889       -2.26245320838899
C            3.05792620738400       -0.92755399840202       -1.37199602708784
O            3.62826960407504       -0.83364548050882       -2.64936004571891
H            5.21719921716147        0.90377686258562        1.55363848772995
H            5.62401832652828        1.80624852884802        0.06488872556569
H            6.67608571186771        0.46716604810125        0.61607243620941
H            3.47950517504298        1.14805692543361       -0.87223182671140
H            1.40108422266916        1.35747848836607        0.27869932900828
H            1.36020831243982       -0.55098763325173        2.66870617933315
H           -0.07254169758274        0.37301663944852        2.15023191159032
H            1.28259362026167        2.26713823330075        2.56118384174229
H            0.96747877519186       -1.67272432199333        0.32569378271135
H           -1.03503613857050       -2.14672599235649        0.56502554740063
H           -2.00988535045460        1.35983774922059        0.73909264576072
H           -2.51782642887310        0.99403811218511        3.21656503471680
H           -4.08136691566350        0.30934337213749        2.74634317199523
H           -3.26839060591038        2.98991127245436        2.42155887528815
H           -4.63451824944377       -0.17276525881728        0.41999191728864
H           -4.68217166112279        2.15141969677236        0.49554251522702
H           -2.54425137114580        0.49658598034581       -1.69239777119741
H           -3.99877308457022       -1.03610871985285       -2.80975301133695
H           -3.29250421878819       -2.18319473741009       -0.41286813795459
H           -1.10926378128730       -1.81983286611816       -2.13377800284374
H            1.37317223791529        0.23553268627605       -2.02541417353461
H            1.45713287543056       -1.88054463348721       -3.08447143807370
H            3.25506043823105       -1.91112626273536       -0.92119155602824
H            4.58883617227236       -0.93735251698310       -2.57948301259811
