48
 energy: -84.853090255981 gnorm: 0.000732082799 xtb: 6.7.1 (edcfbbe)
C            5.63641219652612        0.96399038814126        0.53184025472291
O            4.97567710230963       -0.02351213088096       -0.25676665060180
C            3.61688370466929        0.17309802067513       -0.39876565411189
O            2.99241977059578        0.01875862824141        0.85884304951321
C            1.59692839470518        0.24757957513453        0.85002079179336
C            1.13022718857011        0.14725662690166        2.30289985322762
O            1.42423516160629        1.36636146484408        2.94522356116562
C            0.90348990043892       -0.77103151171507       -0.07262551056129
O           -0.46718993971865       -0.47423384596848       -0.27086656452270
C           -1.43771032207139       -1.31405838818268        0.30548986404492
O           -1.96182305085344       -0.77800604031800        1.48354835520102
C           -2.64973378673712        0.46035059031733        1.31620813878867
C           -3.24863257731032        0.83695687447237        2.67202707359101
O           -4.25536185979945       -0.08646100082633        3.01194095907459
C           -3.74538719894791        0.38964191841938        0.24452230960662
O           -4.22529763880131        1.69712433959076        0.05258512932350
C           -3.18535204326341       -0.19305716774211       -1.05749815224272
O           -4.24540020736310       -0.32350231560558       -1.97489030319155
C           -2.52740945184608       -1.54420510293650       -0.75243326831043
O           -2.01864987526485       -2.15217965531595       -1.90886797879524
C            1.54625123300530       -0.72369800896621       -1.46669913734078
O            0.96822377420664       -1.73895471379100       -2.24772458806702
C            3.07263581530080       -0.87217316515461       -1.38486412804485
O            3.64680992770670       -0.79630973548633       -2.65932398607023
H            5.22969887016739        0.97931653699546        1.54378943687123
H            5.52418053660364        1.95142271889061        0.07480474521273
H            6.68112343419645        0.66894712486317        0.54399668735461
H            3.40141814539615        1.19830360708900       -0.77760703508534
H            1.38430702531088        1.26356836396416        0.48243693357491
H            1.67022469237220       -0.68592009134179        2.76463630366465
H            0.05224090540711       -0.05292291021694        2.32609843125797
H            1.37672923189218        1.24668149045044        3.90367576647591
H            1.02215586141924       -1.77917669827929        0.34264543307783
H           -0.99269070245935       -2.27393751567529        0.60140271302694
H           -1.93259497844646        1.23782029291793        1.01561905016787
H           -2.44424127376613        0.82462474912020        3.41601435404624
H           -3.65780168196200        1.84961612786568        2.57796663630282
H           -4.61324288220643        0.14595057859915        3.88090829026729
H           -4.55005319778205       -0.26921788107836        0.60320136213345
H           -4.86427473775867        1.67346267161246       -0.67610364549465
H           -2.42132863722705        0.49254810753075       -1.45755733761413
H           -3.97007721263129       -0.93814292568614       -2.67261866816011
H           -3.28353804147122       -2.22356199306435       -0.34235884560318
H           -1.11438482120939       -1.83236994526669       -2.08213183385776
H            1.30444553493321        0.25884488420980       -1.90694065921106
H            1.54930330169269       -1.91476859510712       -3.00644512032062
H            3.32920780811989       -1.86407512138431       -0.99861374766492
H            3.67323260299116        0.12072076791014       -2.97077563735094
