48
 energy: -84.750892797026 gnorm: 0.000388732634 xtb: 6.7.1 (edcfbbe)
C            5.56007875605270        0.59291221978213        0.91982615328477
O            4.83448996539765       -0.33792435817200        0.12377569956880
C            3.55321599819382        0.07845020017879       -0.22409280112769
O            2.75107474440596        0.15927963843259        0.91404805438623
C            1.37131164149112        0.59608987076249        0.59393635984040
C            0.57362000417170        1.07212525787815        1.75825600015913
O            0.26496108091622       -0.06910980938128        2.73557124094762
C            0.77927754428501       -0.56748294340962       -0.22900389329304
O           -0.60337509773576       -0.40228787335234       -0.47112458153854
C           -1.46980451752403       -1.27885238267153        0.19077572535215
O           -2.02273627137701       -0.67719675496271        1.33679914595840
C           -2.69909018299149        0.54669885424213        1.04946592192752
C           -3.19046296065536        1.11225919387462        2.39066323527925
O           -3.78554062461188        2.37885910782290        2.23661926558464
C           -3.85856937157513        0.29525293794117        0.07478282055040
O           -4.47673456242052        1.49320486682331       -0.32688204164746
C           -3.35135548881231       -0.40573511125889       -1.19853119042902
O           -4.42544386579891       -0.76437660394419       -2.03171827512505
C           -2.57800010114673       -1.67505670408853       -0.80836066691304
O           -2.02946426629149       -2.36074011872601       -1.89610038136857
C            1.53923000857767       -0.68598035091235       -1.55136860496137
O            0.97728540709035       -1.73523163579195       -2.29729148050794
C            3.01795556610756       -0.94961252614267       -1.23868010520751
O            3.73065178391223       -0.89244386639700       -2.44630189630155
H            5.03492955319433        0.78573092795951        1.85667013776122
H            5.69366659894561        1.53216310019277        0.37510216360753
H            6.52063471798216        0.12406881619421        1.11119054788103
H            3.59114971306594        1.07739177801345       -0.71573127978173
H            1.47110284515987        1.47501529970327       -0.06230131433643
H            1.22773576528454        1.73222207043350        2.35104247774813
H            0.99232202389569       -0.71719837342558        2.82451907757817
H           -0.56857818556497       -0.48284235744513        2.38293079003607
H            0.94489799267688       -1.50695284225326        0.31767513571173
H           -0.95518754795358       -2.18573683511156        0.53132752815750
H           -1.98414462333021        1.24395022750003        0.59100071196483
H           -2.34539756397588        1.15263701285957        3.08302899641786
H           -3.95921810012711        0.45442250922955        2.80261669754170
H           -3.09102962065045        3.03953845314516        2.10380505717261
H           -4.59404036069200       -0.37083269585943        0.55746364483971
H           -4.65629993658739        2.02457398325411        0.47068403074965
H           -2.66829283857797        0.27670341373708       -1.72681245642133
H           -4.95575508243367        0.03174075323787       -2.19124038445302
H           -3.27269632957908       -2.37408759484182       -0.33140597511436
H           -1.24693936811706       -1.88110762128390       -2.21773509803946
H            1.45700149865155        0.26009667808885       -2.10737043783792
H            1.52023838919888       -1.87723988828223       -3.08758859041869
H            3.11045124359699       -1.94576608918143       -0.77906296769310
H            4.66799503169886       -1.06177378729882       -2.27135529984800
