48
 energy: -84.743447889987 gnorm: 0.000480589192 xtb: 6.7.1 (edcfbbe)
C            5.64902255624939        0.45839586454713        0.81529056842751
O            4.89450097437766       -0.39389665138814       -0.03955336786103
C            3.62722436640217        0.08427088806685       -0.35083474074351
O            2.84523921449590        0.13488130590884        0.80149043527797
C            1.46252643752143        0.64671441799722        0.53029051758627
C            0.69644528085783        1.12420753211459        1.70036037012463
O            0.36208332462876        0.01144448979390        2.68095166828005
C            0.83095718012473       -0.46854736288741       -0.32376319984502
O           -0.56042305925064       -0.30209072715308       -0.51057992108589
C           -1.40287352404338       -1.21997101240846        0.13038180442324
O           -1.94422189236570       -0.73017877876907        1.32545552330708
C           -2.69167072153212        0.48098549701801        1.19614867891780
C           -3.26437923459100        0.78748170205068        2.57967376078721
O           -2.20210406443175        1.02775814269588        3.46798259131990
C           -3.82901790857489        0.35318664925429        0.16390288498841
O           -4.48080733714521        1.58187490747652       -0.00797126500778
C           -3.29108265135900       -0.22396153932118       -1.15390435822838
O           -4.36763547743652       -0.44907124171980       -2.03133188939913
C           -2.53235038479673       -1.53243447898582       -0.86801909833644
O           -2.04169329737338       -2.10925253123006       -2.04882894645720
C            1.54905425569253       -0.53466091310566       -1.67086086615363
O            0.94106537182952       -1.52652271701393       -2.46169472264611
C            3.03324559847554       -0.85721573616409       -1.41792664646769
O            3.76035067227385       -0.84459576533659       -2.61658616337095
H            5.13335354145246        0.59844950168889        1.76714587192260
H            5.80714405277167        1.43063974943985        0.33842221803758
H            6.59691337855394       -0.04938161893845        0.96555575458008
H            3.70025108019241        1.11405214379186       -0.77972024529577
H            1.60039434791809        1.54140608596238       -0.09728075690739
H            1.34926619478528        1.79051334423934        2.28433408488596
H            1.04172309527334       -0.68882697329458        2.73225923425484
H           -0.52605322721031       -0.34144259206370        2.40563800103516
H            1.01240587758501       -1.42907998061895        0.18087605540613
H           -0.87111025551336       -2.14272752842340        0.39626077593458
H           -1.99530303090786        1.27934697241217        0.90417233331264
H           -3.85397244631267       -0.07912497028219        2.90760528050498
H           -3.92222412333965        1.65740482401543        2.48225540893834
H           -2.54842477011250        1.35312967397100        4.30873100057812
H           -4.59910855508573       -0.32818849789295        0.54355575069748
H           -3.90314499465444        2.19289962193196       -0.48857769890771
H           -2.58283790662802        0.49307867015579       -1.60112359502590
H           -4.06521234957472       -1.05331477986627       -2.72759607677582
H           -3.22307453752308       -2.25947962482832       -0.42722088815201
H           -1.18543676087145       -1.70506619745363       -2.27640661847542
H            1.46334789564283        0.44331308103288       -2.17225666811979
H            1.53633610504806       -1.75014767631877       -3.19460354797133
H            3.11628840911812       -1.88121168296590       -1.03658020450089
H            3.92412030925135        0.06528153251571       -2.90498817257956
