48
 energy: -84.854451884206 gnorm: 0.000569191552 xtb: 6.7.1 (edcfbbe)
C            5.62324917773285        0.88897958761039        0.60058520095676
O            4.98092819236505       -0.11370338885964       -0.18295541245441
C            3.62897225034814        0.08758781726155       -0.37457780460000
O            2.96324162929061        0.00764080137109        0.86849107107219
C            1.56785525707477        0.23488873718351        0.79803857603061
C            1.03131165138285        0.21139922634670        2.24810147105211
O            0.71486372961452       -1.07845592077302        2.71089480300854
C            0.91265072237736       -0.82089355549268       -0.10913329641545
O           -0.45842088727910       -0.54024094626644       -0.33456187579879
C           -1.41045258110008       -1.38344673744111        0.25644209398077
O           -1.93789780120531       -0.81311769868334        1.42416302069880
C           -2.58781330824024        0.43799732414491        1.19949246789912
C           -3.04183417583911        0.98323014279602        2.56112263791095
O           -2.04462935081652        1.74495566648219        3.19635914864799
C           -3.75768054220186        0.27118503762463        0.22162540754677
O           -4.33883486864847        1.53202025608747        0.01647577898143
C           -3.23227815036712       -0.32781709711085       -1.08952731021079
O           -4.32516661999820       -0.51952881189896       -1.95521745944519
C           -2.51155141425336       -1.64911436605695       -0.78369697895674
O           -2.00066927464197       -2.24262059410616       -1.94694252956590
C            1.58934081158734       -0.82414705456691       -1.48408994416440
O            1.02006244953170       -1.85636588385964       -2.24956335699561
C            3.10797303252377       -0.99191878011300       -1.33646073307093
O            3.73472664154126       -0.97767401993043       -2.58832068417121
H            5.21041945373235        0.90725518623205        1.60994320375214
H            5.50231364898142        1.87062793511502        0.13314633708374
H            6.67146870816563        0.60724963894345        0.62337392316813
H            3.43869966721893        1.09753307333759       -0.80913793778258
H            1.38509929658277        1.23189226884314        0.36548488032820
H            1.83457482163246        0.59272969627109        2.88435257262816
H            0.16522416624461        0.87057455380832        2.32976799611293
H           -0.24194757578763       -1.20988395045468        2.62483676564567
H            1.03709560530112       -1.80702662561171        0.35335251481563
H           -0.95728542277925       -2.33386218926235        0.56588894384350
H           -1.87036884646371        1.13724263511127        0.74756871286818
H           -3.25139702011710        0.13401160398287        3.21451742983127
H           -3.95406579480919        1.56666396880500        2.41503146358058
H           -2.05693112967333        2.64637663578832        2.84541376178922
H           -4.49390707243645       -0.42622798090917        0.65139423280960
H           -4.98062464507062        1.45403153173563       -0.70642201864546
H           -2.51121983730903        0.37283308017980       -1.53963343528689
H           -4.04874599766907       -1.11173999061466       -2.67095600007500
H           -3.23632248214812       -2.35456398170934       -0.35986617702042
H           -1.09581945577429       -1.92367832927216       -2.11466223951957
H            1.37852125837943        0.14556262097124       -1.96713245249529
H            1.63140040424468       -2.08005978697322       -2.97083744466504
H            3.33242830355094       -1.96960248024472       -0.89786228246213
H            3.79172438553889       -0.07423284207886       -2.93378408127381
