48
 energy: -84.634430921228 gnorm: 0.000875948239 xtb: 6.7.1 (edcfbbe)
C            5.65631069816529        0.25122809278929        0.93456528732144
O            4.83709468209969       -0.52245657934031        0.06569462871293
C            3.62808975752593        0.08065984680891       -0.26747717586341
O            2.81134569852345        0.11141155756903        0.85941463692006
C            1.44271113326166        0.65740270863915        0.56157103791551
C            0.66103054302336        1.15770729011795        1.71127338244249
O            0.27002758481150        0.07393893732119        2.70225637977626
C            0.82519601805378       -0.44954365019583       -0.31695885716922
O           -0.57065622475874       -0.30937443180259       -0.49628258759740
C           -1.38420938685664       -1.26381654590196        0.13019181659010
O           -1.92305679294713       -0.81285951664961        1.33674548505056
C           -2.71154041438157        0.38274411831162        1.23142653708157
C           -3.10119145266226        0.77093928100158        2.64500636078307
O           -3.39400117411059        2.27767142708210        2.52499985575197
C           -3.88075313945135        0.12301289650151        0.26048178119925
O           -4.62481089909713        1.31719718256863        0.14798756664439
C           -3.34877756005126       -0.34269585384167       -1.10167378348512
O           -4.40157709143330       -0.52361974106175       -2.02568680956867
C           -2.50473348328474       -1.60425626202872       -0.88377526757637
O           -1.96723820603112       -2.12962995576675       -2.06588740640159
C            1.54565374065437       -0.45648123833993       -1.66686092224796
O            0.99245042086981       -1.37777524617644       -2.57720301622967
C            3.04022878684941       -0.73936146525429       -1.43411066732273
O            3.80136294191257       -0.43371044594940       -2.57210670591937
H            5.12844369246023        0.46644538924528        1.86591174739945
H            5.94236508273801        1.18873076885910        0.44840813130539
H            6.53329383826453       -0.36048935313016        1.12473956822203
H            3.79975365600518        1.11756347887690       -0.63402377069852
H            1.61837074456007        1.54832780227916       -0.06096014934900
H            1.31789057946306        1.81455656824039        2.30057276361479
H            0.94237568805987       -0.62618150079133        2.81335531075946
H           -0.60753740183179       -0.29233759185018        2.39428575604634
H            1.02858441891561       -1.41391637090841        0.17573448849958
H           -0.82532437799112       -2.17743889075886        0.37445100673499
H           -2.07681395047122        1.17604931062368        0.81039054948220
H           -4.08975735690690        0.30821234072740        2.85948930801233
H           -4.11266675639502        2.44811878051630        1.87586765547921
H           -3.63410904471805        2.58693448019329        3.41957932977584
H           -4.52356423901972       -0.67269942069178        0.68065003294355
H           -5.14342364574992        1.27723656935704       -0.66918580446595
H           -2.71380636531296        0.44591361105704       -1.52272305995373
H           -4.77220900090532       -1.41226036621343       -1.93350664152632
H           -3.13166132591636       -2.39738888133147       -0.45890885371168
H           -1.29594245631334       -1.51612571349864       -2.41167556798467
H            1.42833290143081        0.52119243181101       -2.14542041818616
H            1.09670753502374       -2.28096297061410       -2.24073393362006
H            3.16795263093475       -1.80052756633248       -1.16089013474085
H            3.41602197345775       -0.88939723861047       -3.33826299010269
