48
 energy: -84.748564530738 gnorm: 0.000668237173 xtb: 6.7.1 (edcfbbe)
C            5.57001244214552        0.60619658611066        0.83030361610981
O            4.84746529563338       -0.32508804137303        0.03189069147970
C            3.55948630634868        0.07692069718062       -0.29398815854334
O            2.77973409563877        0.14473137273551        0.86293238023902
C            1.39019177060765        0.57605588677467        0.59428059211802
C            0.63836206494269        1.03755206649848        1.79778559877593
O            0.36391077451320       -0.11128913627844        2.76855080268756
C            0.77971424306469       -0.58481065611471       -0.21632890648710
O           -0.60798593307572       -0.42312744774849       -0.42864240288332
C           -1.46009542110020       -1.30215321975495        0.24913564842689
O           -1.99573916945534       -0.71484173726995        1.40610319848435
C           -2.67779164356903        0.51406064097505        1.14909277067449
C           -3.12764252898575        1.08094763274154        2.49599920679057
O           -2.05395982578539        1.29367999886203        3.37193145400410
C           -3.85506231810414        0.27593910931868        0.19769937366077
O           -4.47008812206579        1.50746463373902       -0.07992821199895
C           -3.34464531089245       -0.39138433774331       -1.09634425074608
O           -4.40160444695267       -0.59484958426339       -2.00075937727482
C           -2.59222548764845       -1.68142156916291       -0.73035833604420
O           -2.09544641162315       -2.37401997739753       -1.84057891787352
C            1.50289641308505       -0.69197253840984       -1.55925649444470
O            0.93036615746428       -1.74360781937490       -2.29732124170666
C            2.99955430860333       -0.94316077271624       -1.30442434126894
O            3.71536833230921       -0.96328725366465       -2.50937124421329
H            5.05874216192524        0.77393488222968        1.77994378419607
H            5.67891985868889        1.55714335596000        0.30005685549445
H            6.54179750335831        0.15130966914876        0.99562857935760
H            3.57817127524931        1.08700814655850       -0.77050970041962
H            1.46023961649895        1.46274141188163       -0.05621566578498
H            1.32545804551177        1.68464874087857        2.36789933541225
H            1.06030307719419       -0.79607332523818        2.78681929313196
H           -0.52575677028464       -0.47010847457906        2.50847228131541
H            0.96159335730345       -1.52527093220893        0.32276472876567
H           -0.93816540006493       -2.21071911884300        0.57499299802489
H           -1.97247593131679        1.21262989103977        0.67916767878259
H           -3.78739697501941        0.36722979267553        2.99459547384961
H           -3.68028907780985        2.00779778095192        2.29883622833787
H           -1.34285320401223        1.76322545591938        2.90060253420935
H           -4.57699833163410       -0.40110762633095        0.68639458850934
H           -4.98627099204172        1.40868908405242       -0.89633669120625
H           -2.65345867671313        0.29522925471039       -1.59778399769760
H           -4.88688234211490       -1.39979586783902       -1.76927057396603
H           -3.27759815247781       -2.37176865826649       -0.22392439832847
H           -1.29156879185280       -1.93446725954549       -2.16559871472752
H            1.37613974012189        0.25642476681467       -2.10734000629002
H            1.54094167707748       -1.99217720087404       -3.00930309801182
H            3.12836456503120       -1.94152321351278       -0.87182152713394
H            3.82374418839416       -0.06516807019707       -2.85496750575658
