48
 energy: -84.843818647960 gnorm: 0.000930628119 xtb: 6.7.1 (edcfbbe)
C            5.48798121661373        1.09842472693346        0.66675837040902
O            4.92803855720762        0.08223571746208       -0.16165208044444
C            3.56174973307850        0.17412242156209       -0.33873850486323
O            2.91852428225939       -0.00872591286956        0.90346751251480
C            1.51635637095448        0.13904820531081        0.85451658330370
C            0.99871333365293       -0.01769659975584        2.29714434207771
O            1.54696353881380       -1.10968740371714        2.98425223589289
C            0.87130460243747       -0.86128956627694       -0.12730023047236
O           -0.47276331443627       -0.48472189918035       -0.39224292115726
C           -1.50459625203269       -1.28639241884478        0.11026768118529
O           -2.05810252420920       -0.75732852335265        1.28157275682094
C           -2.68245718244817        0.51562975909939        1.11114451135621
C           -3.12508526949786        0.98190840779633        2.50535156383174
O           -4.14767722417672        0.18535120754503        3.04362813388284
C           -3.86103336021412        0.38386163025685        0.13492445346461
O           -4.46945666000466        1.62430208078678       -0.13390298220879
C           -3.35713692008012       -0.16817852866228       -1.20728291816398
O           -4.43850082800354       -0.44794364544876       -2.05899484356939
C           -2.56845549141354       -1.46478371135312       -1.00062064605058
O           -1.97811462079818       -1.80266136453922       -2.22401846702050
C            1.59698472187886       -0.90554761151660       -1.47825715682651
O            1.15309968179655       -2.06146882457330       -2.14431965993708
C            3.12785193335695       -0.92417165660371       -1.32034958783542
O            3.75443541748544       -0.83308879022089       -2.56960110813848
H            5.08431155010685        1.03063362925068        1.67806967359522
H            5.27849037780477        2.08744120037446        0.24843364051067
H            6.55695075929142        0.90796957055622        0.67036672445768
H            3.27913573792568        1.17550796387984       -0.73896305495519
H            1.25741511042637        1.15019688259691        0.49742670802442
H            1.30043844998181        0.85880246096588        2.87341328474231
H           -0.09498144027416       -0.07695127597759        2.26676773860261
H            1.30633262582072       -1.93866683354088        2.54978517469859
H            0.90595654938672       -1.87437606102685        0.29405018726720
H           -1.11983302955000       -2.27386105685534        0.40158650971561
H           -1.95593202546753        1.22886265556086        0.69968076196355
H           -2.24777776742212        0.99067547645955        3.16278499938038
H           -3.52220441093550        1.99536650208079        2.43479779915149
H           -3.80503103199061       -0.70913419701982        3.17933795093520
H           -4.58737233488259       -0.32840645305763        0.54898580098586
H           -5.06278581373230        1.86017695645298        0.59288237843819
H           -2.68314616455035        0.56912639451887       -1.66683924904721
H           -4.93571644018828        0.37405578434800       -2.19187667496681
H           -3.27788843929795       -2.24450570568527       -0.67930197761244
H           -1.32332444831117       -2.50775556711244       -2.10426477940519
H            1.29914442578400       -0.00765597054031       -2.04312642250724
H            1.67522827959140       -2.16915266289990       -2.95509843370058
H            3.44031344019121       -1.88630133750254       -0.90069076476489
H            3.70240129797384        0.07128394481518       -2.91283101583328
