48
 energy: -84.852821957315 gnorm: 0.000605970646 xtb: 6.7.1 (edcfbbe)
C            5.73132736049138        0.85394640574708        0.61317065061342
O            5.00777031581554       -0.14544683615183       -0.09893686154245
C            3.67585564859139        0.14068242857931       -0.31596213560600
O            2.99019341497407        0.09565615603999        0.92131752506012
C            1.59777432647568        0.34532687316419        0.83706544582741
C            1.05172529391280        0.27565946306405        2.26990771925666
O            1.35306428527620        1.42152820882821        3.01784964294880
C            0.93133312739136       -0.68903372487094       -0.08183949768947
O           -0.43135554139064       -0.38735408284066       -0.33610935640869
C           -1.42219653775738       -1.20503110415103        0.22377928992481
O           -1.99266571531141       -0.64738123534599        1.37590987568562
C           -2.63583667407935        0.60487273208474        1.15416887926303
C           -3.19340981542024        1.07538387884274        2.50481649457805
O           -3.55421196309479        2.42826082149815        2.49787469780471
C           -3.74289081806721        0.46566362628014        0.10021052258797
O           -4.31564114959697        1.72843080638774       -0.11891356976916
C           -3.16064252286828       -0.11598619966047       -1.19425765163888
O           -4.22189254269246       -0.26840959201595       -2.10336191182861
C           -2.48540270121652       -1.45212949905534       -0.86955077353883
O           -1.89589147756141       -1.95751030571577       -2.04250757810009
C            1.61653107727780       -0.70103583635798       -1.46147944366682
O            1.08909292675715       -1.71886371933273       -2.26762732879730
C            3.12771828438861       -0.90875790627947       -1.30682153481527
O            3.80761829381551       -0.87033401754427       -2.52521607285585
H            5.35773090473636        0.94523011068986        1.63381004372370
H            5.65457749874449        1.81775323844825        0.10197489945133
H            6.76184416737670        0.51160897707726        0.61838789808799
H            3.55420095209770        1.15863647994263       -0.74972816829201
H            1.41906027194386        1.35171255256981        0.42622153472184
H            1.45969712113311       -0.62480309805657        2.74491921172579
H           -0.03634127537912        0.20617265028369        2.24323618542848
H            2.31328119042502        1.49189108261922        3.11272387077037
H            1.02781763462699       -1.68360705123247        0.37149966932212
H           -0.99204840368445       -2.15793258018265        0.56222017414642
H           -1.90310639686872        1.34180078105249        0.79571828976125
H           -2.41576100947621        0.96163942544133        3.26359328766399
H           -4.04625659081862        0.43922889599409        2.77878824006514
H           -4.11737518623696        2.59258203032581        1.72197597031322
H           -4.50641636609098       -0.23720838018874        0.47302745684078
H           -4.90995441659641        1.66345275458745       -0.88282863806057
H           -2.40092417065736        0.57067740637301       -1.59421860890475
H           -3.88684037476244       -0.68860819366028       -2.90905932741387
H           -3.24362706172678       -2.13655379704533       -0.47085674227762
H           -1.79107073563103       -2.91797731617655       -1.97958876373540
H            1.43820798411037        0.28232147153316       -1.92882644113650
H            0.12420316581541       -1.58744016451267       -2.34383292514400
H            3.32580144627832       -1.90275360212230       -0.89514456389822
H            3.59568575665642       -0.05647697615556       -3.00692762199409
