48
 energy: -84.747795433218 gnorm: 0.000621933411 xtb: 6.7.1 (edcfbbe)
C            5.52810035087134        1.25958800538997        0.38748972423783
O            4.94980152308148        0.22316222360141       -0.40354201905165
C            3.56473260992669        0.25216847733099       -0.45744958264494
O            3.04300762220055        0.03562434647699        0.82335214588332
C            1.62699274689840        0.11593795823299        0.95328169225617
C            1.48047187189448       -0.15861458031915        2.44751801680815
O            0.04807451155978       -0.03153280761332        2.93445060027554
C            0.94597224743339       -0.86373987762035       -0.06070033168984
O           -0.41331545989262       -0.51415659489166       -0.33045789095139
C           -1.43966552627471       -1.32508382097942        0.15476015986123
O           -2.00402468845202       -0.76565058670331        1.31641820402006
C           -2.60087164563450        0.52055907425278        1.08340573117781
C           -3.11087635309591        1.06753963946325        2.41398969506486
O           -2.03923045600340        1.67766838319160        3.10042739912069
C           -3.72171876347216        0.40718596054671        0.04436368198437
O           -4.27541012225180        1.68049291047569       -0.15020207369101
C           -3.14109732141288       -0.16253540740873       -1.25611950398787
O           -4.19033018482629       -0.29115741659642       -2.18420689479378
C           -2.48610475781617       -1.51671171658069       -0.95063838607001
O           -1.93035848614441       -2.09885816746852       -2.09882490774103
C            1.59097753199529       -0.81502208650694       -1.45562108143798
O            1.04175185582983       -1.86557099301041       -2.21677495704856
C            3.11154798844441       -0.87418417937726       -1.39376136208691
O            3.60600393946800       -0.72970790582326       -2.69835904127391
H            5.16679562941504        1.19553575988106        1.41427176204120
H            5.27688864303252        2.23681978179148       -0.03466099058513
H            6.59952718890035        1.08941992789599        0.34441430648474
H            3.21003806556469        1.23234006210962       -0.84998006552671
H            1.29076982602010        1.13365828854977        0.68273560414476
H            1.68076917843206       -1.23993411986674        2.58450833796127
H           -0.67219673759450       -0.43580186230142        2.37799448817340
H           -0.18856676232644        0.91437699877095        3.06264440869643
H            1.00881447306963       -1.89197595257348        0.31821744847993
H           -1.05310803778422       -2.30728022196446        0.46387159956084
H           -1.83897369024288        1.20658174750294        0.68992257241546
H           -3.52764479211793        0.23774939545193        2.99507417950618
H           -3.89342230478032        1.79745340259597        2.18751393910308
H           -2.37820777383479        2.09334574234423        3.90500737521345
H           -4.49042394717859       -0.29140171767420        0.41286591648981
H           -4.85610877920185        1.64093317375507       -0.92584394110059
H           -2.37290778244321        0.52586095212263       -1.64272932770210
H           -3.89166527275208       -0.85988038373464       -2.90955860890365
H           -3.26001707356363       -2.20505782633470       -0.58865146852615
H           -0.99214457499745       -1.84725809024493       -2.18544613588513
H            1.31422803742989        0.14983847144077       -1.91273958066897
H            1.54741095113214       -1.93533641067373       -3.04208399015027
H            3.43648301373529       -1.82655807761893       -0.94908625859728
H            4.57146047975662       -0.65771192296163       -2.66100050982014
