48
 energy: -84.742695271147 gnorm: 0.000532942325 xtb: 6.7.1 (edcfbbe)
C            5.61489017744235        1.01612452256339        0.62809116053459
O            4.97348672626723        0.03094648573376       -0.17896002587062
C            3.61010808586455        0.21053315798249       -0.32971769674690
O            2.97987851841704        0.05756223993435        0.92038611450498
C            1.57811355349005        0.23101664702568        0.87486328129540
C            1.05052299768026        0.06464077721675        2.30379227427040
O            1.17764178224317       -1.28495864295256        2.69138646604422
C            0.94217063093808       -0.78869664194083       -0.08154908810990
O           -0.43000960625145       -0.50468857921940       -0.30294681302727
C           -1.38915792359775       -1.37187748797436        0.24410002702040
O           -1.94225282879313       -0.87257568364722        1.42335292338111
C           -2.56599658491573        0.40354695488173        1.26068316471944
C           -2.96219459519104        0.89810564226390        2.64337750775612
O           -3.31754002604289        2.38978211939420        2.39443647283119
C           -3.72321534034546        0.25928557804916        0.24049079323163
O           -4.35250029784755        1.51194392462693        0.08114827558106
C           -3.18215129103338       -0.26626607992085       -1.09047910886832
O           -4.26584394520323       -0.40337784176041       -1.98155886891523
C           -2.47567668300102       -1.59846126621905       -0.83115580352839
O           -1.91932176787132       -2.06117993408672       -2.03883491487979
C            1.60245584795610       -0.74089005845602       -1.47140367516438
O            1.13275049942308       -1.79956311712870       -2.26521960970364
C            3.12271958331124       -0.82976713474234       -1.35525388762190
O            3.68450705934299       -0.57104501309464       -2.61266906450647
H            5.22448247677728        0.98722649787291        1.64582688357340
H            5.46232778442123        2.01103608618230        0.20035112530027
H            6.66883763139386        0.75507516491579        0.61649290947507
H            3.38771076692638        1.22832307648026       -0.72236886741610
H            1.34052843597012        1.24488492276127        0.51484707066991
H            1.64965051797655        0.71057548370841        2.95573538013023
H            0.00042785725285        0.37442451891270        2.33475420743686
H            0.83828517853788       -1.37450101503784        3.59331755441316
H            1.07205843892589       -1.79006957176538        0.34486368703802
H           -0.92721229040085       -2.32705069627679        0.53004028998012
H           -1.83355968046087        1.10573849278844        0.82844576520881
H           -3.93887874092012        0.41839036280690        2.88259415505939
H           -3.94960726295753        2.47031051726886        1.63753191575467
H           -3.71628858930509        2.71496344617353        3.22454253872669
H           -4.44923707145754       -0.47509302302156        0.62933611898092
H           -4.95227934400610        1.45736999967436       -0.67787500205827
H           -2.44397422270727        0.44466514644304       -1.49020476586653
H           -3.94383824392871       -0.80774113250819       -2.80012229908272
H           -3.21126788778406       -2.30883608201661       -0.43128296794100
H           -1.74302343622614       -3.01104390036830       -1.97856145990877
H            1.35379705436745        0.22279599913066       -1.94188738330804
H            0.17040800934556       -1.69019017310468       -2.37469540715938
H            3.39700740439438       -1.82982024734742       -0.99363792011976
H            4.64652064073403       -0.67610243243987       -2.55246040964302
