48
 energy: -84.733109383686 gnorm: 0.000344300568 xtb: 6.7.1 (edcfbbe)
C            5.58477410641988        1.14591657487827        0.46721087350345
O            4.97354615351110        0.14863940313786       -0.34892232541741
C            3.59046757922347        0.23607136685914       -0.42016802377596
O            3.04425030792257        0.01840993398851        0.84892263326175
C            1.63219147703490        0.17357477068796        0.93516215622598
C            1.39018151451016       -0.02861492819482        2.42306158757344
O           -0.00875847199345        0.54120519447215        2.76248646690609
C            0.93505765497510       -0.82139096389073       -0.04637907141638
O           -0.42974013826647       -0.46933696393609       -0.29401662479956
C           -1.44126085621169       -1.27165168945281        0.23496728522509
O           -1.98118276255320       -0.68369963437911        1.39751611124307
C           -2.69458791659756        0.54355614055766        1.15951533964839
C           -3.38052528073694        0.94671716822129        2.46923897487010
O           -4.23655394538700       -0.09801383854310        2.87114051779803
C           -3.75272557237377        0.42675239898711        0.04906794825696
O           -4.31753288419355        1.67895181160544       -0.24333630040886
C           -3.16243722070207       -0.22119244962514       -1.20818932233837
O           -4.15102592768859       -0.47056816049648       -2.17792805330647
C           -2.53981795078633       -1.55176446292221       -0.79674982991445
O           -1.98690469427052       -2.26718954425943       -1.86173328649822
C            1.58525973157013       -0.81689699522234       -1.45373621842113
O            1.07000521325153       -1.83700318764124       -2.26576683417729
C            3.11351184981888       -0.85307691239436       -1.38870098142743
O            3.62679613819024       -0.66139662299311       -2.67894146623106
H            5.20458594812297        1.08234549362948        1.48718742356195
H            5.38521019024428        2.13993303852948        0.05707989598079
H            6.64802762180692        0.92762937491354        0.43780066647741
H            3.27920859655943        1.23574481028539       -0.79806526572848
H            1.35378821299145        1.19527500336923        0.62517842278923
H            1.29349079215460       -1.12319952718221        2.58802192986890
H           -0.75046535684329       -0.03797058064584        2.43143960230421
H           -0.00502936053061        0.56101296850208        3.73996984364634
H            0.99359237685943       -1.83686812629871        0.36868451605889
H           -1.03295170921827       -2.23610255805779        0.57113605881865
H           -1.96950727404152        1.31708562891127        0.86638262363650
H           -2.62622328060843        1.14689606656458        3.23633823131031
H           -3.94786635057211        1.86317778355246        2.26794651694913
H           -4.71171257332887        0.17215331047764        3.66925384103921
H           -4.57930810436047       -0.19483450818792        0.41162222561607
H           -3.62982138632831        2.28702909623979       -0.55465830641004
H           -2.36761686015212        0.41713091590253       -1.62777174424985
H           -4.73534248093033        0.30132885937574       -2.23351818650123
H           -3.31247294624709       -2.15739263907260       -0.29237867839319
H           -2.59464547670301       -2.20451396610810       -2.61540256715102
H            1.28462839667073        0.11205791040396       -1.95211645084750
H            1.41857428971939       -2.69417281085088       -1.98163802443257
H            3.44416336552873       -1.81957280764810       -0.97427432382785
H            4.59407926249586       -0.61728018990513       -2.62271175334814
