48
 energy: -84.852832537627 gnorm: 0.000331251460 xtb: 6.7.1 (edcfbbe)
C            5.43101667495872        1.29428007908653        0.57517363342465
O            4.89845058778116        0.19051151205507       -0.15326010470394
C            3.52998274156886        0.22489436747655       -0.33199392267334
O            2.89715153362804        0.04436891809573        0.91736904704523
C            1.48646235091815        0.12613576413359        0.87040195172310
C            1.00838221705612       -0.11786449311184        2.31049117431950
O            1.39867552821248       -1.37961765699214        2.78208993099788
C            0.86852589637493       -0.90431264310477       -0.09546719021795
O           -0.48245366873851       -0.54628361924679       -0.35804624249794
C           -1.49881733966335       -1.35087688181239        0.16824891629398
O           -2.04447375654060       -0.79244697636666        1.33548359338162
C           -2.63847400459664        0.49389072210428        1.15605425919828
C           -3.21997653826479        0.89405219167923        2.52110390665691
O           -4.09889714680029       -0.07807828404503        3.02155658432106
C           -3.74409392158801        0.47445517740293        0.08025523517070
O           -4.27703663874041        1.75469074186482       -0.13004694220466
C           -3.19569530922777       -0.15104634351505       -1.20837468241056
O           -4.14792295296930       -0.23373353050745       -2.23859955635466
C           -2.61130330213543       -1.53317823183552       -0.88001711242772
O           -2.09927956492313       -2.17331201128644       -2.01283549707510
C            1.60072025121572       -0.94720036637792       -1.44470477389757
O            1.20739878942659       -2.12119624111196       -2.10464703130084
C            3.13195022775069       -0.91064003925269       -1.28384716368846
O            3.75822765805628       -0.82595968240572       -2.53393675881811
H            5.01872175350247        1.32396423250496        1.58456353947594
H            5.21083748563709        2.23264019812327        0.05794668081544
H            6.50295629535867        1.12494832029932        0.60885773308123
H            3.20818654469520        1.20411594640303       -0.75346088217357
H            1.18040360018507        1.13062519518624        0.53846285207172
H            1.40722940532605        0.67718250727822        2.95168124170216
H           -0.08139780086237       -0.10275581105140        2.34098994439410
H            2.36563640616449       -1.43133759824075        2.74935755744307
H            0.91986363610925       -1.90199428646094        0.35562384377720
H           -1.10773238899922       -2.33077833279963        0.46673090160823
H           -1.86271769645809        1.21301753807161        0.85745128440333
H           -2.39812656882310        1.07201768254139        3.22468000680258
H           -3.80584737885580        1.80676688745717        2.40033277944941
H           -3.61043582865320       -0.90952945854185        3.11060385290334
H           -4.57943621079708       -0.12754020747336        0.45961079302364
H           -3.63472162242064        2.31221725079489       -0.59309352059128
H           -2.38300050111865        0.46810938892950       -1.60707692800779
H           -4.99128302217999       -0.55616416285262       -1.88811753191694
H           -3.39314229662033       -2.15908401557389       -0.41572707480412
H           -2.63959051293512       -1.91061158595825       -2.77747727154857
H            1.27857721982663       -0.06325431570673       -2.02099257102048
H            1.74499375778801       -2.22416675499280       -2.90615705449232
H            3.47323878134908       -1.85356338863931       -0.84470148664386
H            3.64906462961714        0.06041524104927       -2.90958986490657
