48
 energy: -84.857515591998 gnorm: 0.000694247452 xtb: 6.7.1 (edcfbbe)
C            5.68040874861794        0.93936918725525        0.60113319365509
O            4.97512008962487       -0.10086893950099       -0.06947781151141
C            3.64225136405595        0.16226130334637       -0.31100701917815
O            2.94516705670330        0.10539402088730        0.91872874061831
C            1.54591342251429        0.30256279404312        0.82325804480283
C            0.98482071459944        0.22959238565621        2.25255517677208
O            1.03142044726148        1.45898053807096        2.92540613996974
C            0.91143730115946       -0.75645653287822       -0.09426397128320
O           -0.45005640970427       -0.45698316898198       -0.36013982465336
C           -1.44348589109738       -1.26981882078443        0.19491171669426
O           -2.01630332149965       -0.70322339642902        1.34103905568597
C           -2.64473644721880        0.55488866561999        1.10720640246784
C           -3.17339322506144        1.02843764855299        2.47127983862838
O           -3.76606006201709        2.30187380937874        2.40649434963687
C           -3.77524692330658        0.42326096615164        0.06877312590263
O           -4.35309310921259        1.66414986350270       -0.23619517774296
C           -3.20435096681000       -0.17792676463485       -1.22118709595936
O           -4.16258647121807       -0.37138943203528       -2.23028483467310
C           -2.50714082254673       -1.50790474934745       -0.88976286225312
O           -1.86926141080182       -2.05107601798417       -2.01571582225933
C            1.61206264384208       -0.78568754604641       -1.45895486558202
O            1.18656781805575       -1.88315998276071       -2.22648712182212
C            3.13328340620486       -0.89148165107941       -1.30338724318184
O            3.77939223746532       -0.66420543486759       -2.52519690351221
H            5.29555258347141        1.07325704687994        1.61303039851612
H            5.59759873655987        1.87583136009475        0.04268580164141
H            6.71482905881265        0.61013506857730        0.63177986261833
H            3.50893597759585        1.16803709122646       -0.76201243892183
H            1.33484967323173        1.29555794418745        0.39465842193152
H            1.54428302809662       -0.54303682202325        2.79219744746714
H           -0.06857126568317       -0.05208763503012        2.21523283918942
H            1.95372098255253        1.70781506879919        3.07861138945021
H            1.00559438368124       -1.74424476613376        0.37503182368276
H           -1.02653804977218       -2.22990936620368        0.52623665826425
H           -1.90215578041564        1.26742058669788        0.71992836796560
H           -2.34928439026281        0.99844480420911        3.18969410500866
H           -3.95045749097140        0.33722413145287        2.80694902128672
H           -3.08063935883800        2.98524680268043        2.39905739279906
H           -4.53710054714159       -0.26758459252524        0.47348667460566
H           -4.56204606461447        2.11935077565879        0.60082580944195
H           -2.46245036910321        0.51178141829564       -1.63906061235939
H           -5.01597963647621       -0.61050707001707       -1.84166646684063
H           -3.24816636636129       -2.21858406558765       -0.49021229808797
H           -2.46987765442372       -1.94581288235875       -2.77366008562432
H            1.37820734614593        0.15662221168337       -1.98026939286725
H            0.21258248419723       -1.90308531073082       -2.25137267372474
H            3.38863615197467       -1.88228737755030       -0.90166701278873
H            3.46120338202735       -1.32217717314860       -3.16364626518557
