48
 energy: -84.848854967236 gnorm: 0.000883436138 xtb: 6.7.1 (edcfbbe)
C            5.53373093140768        1.19307229385663        0.64681825472300
O            4.94673809792781        0.11664749836908       -0.08013963722624
C            3.59012411012752        0.24619637999159       -0.30135900893767
O            2.91252462537697        0.11795382677464        0.93197399645414
C            1.50861789763810        0.25577253591543        0.84636412922181
C            0.98336657748574        0.17316113189202        2.28547424069627
O            1.03668789198759        1.45086081418721        2.88291772315758
C            0.89808815889433       -0.82453393271507       -0.07383241047528
O           -0.47195477395081       -0.54734299176729       -0.32180547818029
C           -1.44406635729461       -1.37596600580430        0.24656834855101
O           -1.99929512127810       -0.79731891756257        1.39976194919511
C           -2.62374517419843        0.46822282231534        1.16154208432517
C           -3.12049363669482        0.97456605626964        2.52263459319138
O           -4.15129782226503        0.18295173278430        3.05319344721992
C           -3.76411232787634        0.32609953772963        0.13739720570322
O           -4.30308897050800        1.57286370255060       -0.23087720318500
C           -3.22118385060462       -0.32466382788770       -1.14186779851414
O           -4.24882696223665       -0.59311742081651       -2.06376170190665
C           -2.55536379016837       -1.65269352368552       -0.77982425305543
O           -2.00592670626428       -2.31355867490892       -1.88068949700150
C            1.61775924378020       -0.80560865228323       -1.44203284240323
O            1.15439987435270       -1.79647637825845       -2.31231301507575
C            3.14528799024479       -0.87585088612928       -1.25850499463392
O            3.82442358711732       -0.84600765476392       -2.47913347464070
H            5.08773640182419        1.27224953972739        1.63921004328298
H            5.40015379285980        2.13404469441589        0.10533252801251
H            6.58855253655215        0.94701227139303        0.72179108754354
H            3.35157812414733        1.23975327595580       -0.74133325169197
H            1.25141796000968        1.24342877313437        0.43297012108934
H            1.60724721381200       -0.55015094316863        2.81516734955197
H           -0.05404432987344       -0.17836458826808        2.27307992513098
H            1.36562457633125        1.38130508053240        3.78844378444255
H            1.01207184671340       -1.81118329836835        0.39220097158762
H           -1.00849286031298       -2.32747338505773        0.57802462721097
H           -1.87984762033043        1.17133443989336        0.76372512237056
H           -2.26470625872654        1.01888668623183        3.20535923723279
H           -3.52706167233326        1.98021975224133        2.40745687440574
H           -3.80190670298649       -0.70094293279248        3.23312287282488
H           -4.54250868818348       -0.32668985881607        0.55720369686563
H           -4.86623168678524        1.90768978485827        0.48034709323729
H           -2.46690291131952        0.34088535850955       -1.58630278548747
H           -4.73559600492922        0.22939930682144       -2.22247138191336
H           -3.30844371985303       -2.29325620488006       -0.28987470871661
H           -2.63176824971272       -2.24520903419342       -2.61829564715402
H            1.35158413469716        0.13918904629791       -1.93220480041423
H            1.44173134266167       -2.67130712535557       -2.01365931693831
H            3.42948440994948       -1.82600569711394       -0.79262771223482
H            3.55542387264665       -0.07349844015158       -2.99778635043518
