48
 energy: -84.856485864990 gnorm: 0.000755893385 xtb: 6.7.1 (edcfbbe)
C            5.67418134288902        0.67543204683879        0.60645381432667
O            4.95647668811792       -0.22442268738153       -0.23443721545069
C            3.62229527417755        0.09340135033571       -0.41704016553030
O            2.94352774491406       -0.00116086736186        0.81550356305222
C            1.56073155172624        0.29470743823071        0.73421366532479
C            1.00715433529921        0.27319883435057        2.17583336545648
O            0.66158336632641       -1.01141642081804        2.63181969577612
C            0.87981250696888       -0.71361447897579       -0.20836581724331
O           -0.49290738507513       -0.42739496502432       -0.40952048494062
C           -1.43461411087683       -1.30186484930205        0.15483175127359
O           -1.95851486717992       -0.79508099349208        1.35125948424576
C           -2.62811728183067        0.45540909153670        1.19048345648530
C           -3.07603099305551        0.92235431532885        2.57219727934293
O           -1.96855633576292        1.49270727487662        3.23305405854141
C           -3.81740445592904        0.32383388202508        0.21626814480481
O           -4.51016253293676        1.53476026308646        0.09212509925773
C           -3.29513245570270       -0.21037085399838       -1.12437826365072
O           -4.37226308664504       -0.39896111801583       -2.00698662324048
C           -2.54537666751290       -1.53173739950749       -0.88179180332264
O           -2.04304466184083       -2.06065412958722       -2.07905943978931
C            1.55036318933269       -0.67190228360197       -1.58647830055496
O            0.94223448669794       -1.64857747064528       -2.39189447902789
C            3.05509568891436       -0.90334256635582       -1.44059963719543
O            3.63777566565571       -0.73813733055959       -2.70526649944178
H            5.24504300783545        0.68405899112853        1.60889533183708
H            5.65293748281105        1.68434449548363        0.18500646362623
H            6.69118376856463        0.29560541365083        0.63177103199323
H            3.51186953000047        1.12830147812719       -0.81086647577591
H            1.43212604195598        1.30766349554386        0.32010535184739
H            1.81101640140401        0.63549149906250        2.82316568388012
H            0.15416531869519        0.95134403601487        2.24942896719532
H           -0.29230649944654       -1.13698363314677        2.50061637041912
H            1.00417467965492       -1.71836325673703        0.21405926379308
H           -0.97071259208691       -2.26169097966677        0.41651154267877
H           -1.91538982480219        1.18910478614858        0.78762714326392
H           -3.46037819077508        0.05441364770855        3.11856313508030
H           -3.87597594649560        1.66023440127925        2.43838914531773
H           -2.22249046699632        1.72969541715620        4.13604413084178
H           -4.54296285915292       -0.38925397485057        0.62303572278162
H           -4.03048504731539        2.13433420419058       -0.49813184016207
H           -2.58264846511951        0.51750014318605       -1.54936065137623
H           -4.07575619627750       -0.98189432526644       -2.72404476382534
H           -3.25459192849849       -2.26635436148832       -0.48217566264616
H           -1.14066446830636       -1.72800737791118       -2.23784157186628
H            1.39152491334804        0.32535150641048       -2.02681504650029
H            1.45296158621157       -1.72944890375169       -3.21278518485148
H            3.23294036427155       -1.91638650650208       -1.05142346949432
H            4.59510839157743       -0.87026625205176       -2.63624331443279
