48
 energy: -84.851371581360 gnorm: 0.000773558696 xtb: 6.7.1 (edcfbbe)
C            5.55059183495666        0.95309211526904        0.69235017268984
O            4.91049010731032       -0.07009259150875       -0.06630039754971
C            3.56909216733666        0.15514592006568       -0.30111687790631
O            2.87253646117270        0.00882623659113        0.91773152508992
C            1.48532513965407        0.25478454591047        0.82238277204550
C            0.93432530368035        0.19542328529578        2.24827073938768
O            1.21175456262040        1.42694848350117        2.87321005796149
C            0.83278671279149       -0.77027162536673       -0.12125270597438
O           -0.52117937333755       -0.42904244618049       -0.39701238308592
C           -1.53955974335196       -1.23794174903499        0.13661063391527
O           -2.11767484991873       -0.70638457017220        1.29334142331002
C           -2.82409833390903        0.51515503568555        1.10933691911637
C           -3.31860595578081        0.97518605462890        2.48755059028968
O           -3.69938754296993        2.32253230338374        2.49649698339514
C           -3.98770908117460        0.29704136218511        0.13593607665923
O           -4.69324391542773        1.50098923548702       -0.01191700294654
C           -3.42855953222638       -0.19128433560593       -1.20442553139654
O           -4.52107187866606       -0.43745944904482       -2.05730792345444
C           -2.57704187617643       -1.44844092321109       -0.99754914603176
O           -1.92953148066234       -1.81116430856246       -2.19097895459885
C            1.55761843414976       -0.82630185706572       -1.47406881641774
O            1.19401050585042       -1.97273028077360       -2.20578494266749
C            3.08642520872631       -0.87506801520104       -1.32874377050871
O            3.70623480648417       -0.58477265905481       -2.55076171827677
H            5.06712285106990        1.06649782321088        1.66426352628148
H            5.51731741422515        1.90188125701043        0.14916204856564
H            6.57761452470272        0.62201450409563        0.81270911832758
H            3.39977032034560        1.17598597564458       -0.70381800923851
H            1.31217841214179        1.26626234715136        0.42167774538633
H            1.43714545027637       -0.63211597710308        2.76031916064980
H           -0.14694118982015        0.01196829337642        2.21911325270336
H            1.08545954521024        1.34144096952326        3.82834622978092
H            0.88850291963445       -1.76168056838083        0.34752759145636
H           -1.13383893861513       -2.20847934609560        0.45054034861304
H           -2.14914424333421        1.28137281259803        0.70192561166111
H           -2.50179366161298        0.87513066355180        3.20487672987664
H           -4.14536358253034        0.32671181337282        2.80658035877655
H           -4.33193787867662        2.46583433222911        1.77247010773798
H           -4.64718288709976       -0.48719575058469        0.54131531370593
H           -5.34805660570372        1.38619073117741       -0.71799844902719
H           -2.79065993630905        0.60605104204687       -1.62227819250968
H           -4.21961931381241       -0.92373407107044       -2.83906542547180
H           -3.22641570058203       -2.28638590482687       -0.72772969483422
H           -1.48063677558443       -1.02503184149020       -2.54198991738688
H            1.29888483157236        0.08676321475328       -2.03398098433919
H            0.22909788569343       -2.09215654284206       -2.19961566039308
H            3.37954902750610       -1.86862531192757       -0.96255732568869
H            3.45969184670301       -1.27089219936091       -3.19099523579084
