48
 energy: -84.857495802756 gnorm: 0.000320757085 xtb: 6.7.1 (edcfbbe)
C            5.68603635238814        0.93678041089429        0.58760509446068
O            4.97843892471106       -0.10662506908097       -0.07569657737022
C            3.64789772850868        0.16076252736758       -0.32714804823996
O            2.94858650494624        0.13866743350812        0.90216212452343
C            1.54855376433844        0.32611749474674        0.79983663315394
C            0.98949461098477        0.30643591858140        2.23158150912501
O            1.01910669165357        1.56430725828274        2.85069546563645
C            0.92285574577203       -0.77217367036148       -0.07640327053479
O           -0.44585488263654       -0.50698708482028       -0.34155065454740
C           -1.41934104905267       -1.31901363201490        0.24945444608378
O           -1.99282449598362       -0.72142507425992        1.37975363106194
C           -2.64998225449296        0.51310543840570        1.10332522959028
C           -3.16985857029767        1.03655682270232        2.45224673418048
O           -3.77576598420328        2.30013665318489        2.33833048709387
C           -3.79032583962815        0.31127608422775        0.08815093306921
O           -4.41398798332772        1.52026452444322       -0.25361183691725
C           -3.21831142098865       -0.31821261765380       -1.18636867720054
O           -4.18456570020385       -0.57889143747688       -2.17483474917063
C           -2.48635572025029       -1.61890017161766       -0.81636762371363
O           -1.84455527370302       -2.18554894320868       -1.92824386810022
C            1.61467546583418       -0.82800780007648       -1.44488695970558
O            1.19797124023112       -1.94898769393449       -2.18259903527234
C            3.13818860813367       -0.91263429043676       -1.29803796784613
O            3.77280345569851       -0.69737069273463       -2.52832961743571
H            5.29336899421450        1.08642173868238        1.59426512133687
H            5.61547735155830        1.86657929402658        0.01656953568288
H            6.71740952561700        0.59962654867962        0.63156802197710
H            3.52310994682167        1.15656869803194       -0.80208189202228
H            1.33226974729245        1.30047070041730        0.33297617989249
H            1.56061199724344       -0.43378077200912        2.80328651268694
H           -0.05950465173604        0.00813132528798        2.20827329054518
H            1.93771598369571        1.83443093007249        2.98775956797007
H            1.03931698143430       -1.74265823496987        0.42269472133403
H           -0.98063078769535       -2.25785828933204        0.61197259287465
H           -1.92758329469170        1.22326183391101        0.67521788506128
H           -2.33813004809071        1.04589420713252        3.16275595197813
H           -3.93610608176485        0.35314624865740        2.82554974666572
H           -3.09580186082424        2.98646500031457        2.28154568132146
H           -4.52312079176013       -0.38887625607868        0.52929095417514
H           -4.60329935895551        2.01265055265495        0.56730153746700
H           -2.49451918958638        0.37361374369920       -1.63341991626642
H           -5.06024565441883       -0.66295476927145       -1.77401253432277
H           -3.20786055728459       -2.33199957154000       -0.38707531543205
H           -2.46162973427157       -2.14028240955820       -2.67798289048075
H            1.36586040891790        0.09837572331965       -1.98750888379373
H            0.22415251283233       -1.98602252368695       -2.19387837535882
H            3.40705945453964       -1.89455478460400       -0.88362874998791
H            3.45716419316714       -1.36852232671716       -3.15408414448504
