48
 energy: -84.848732181620 gnorm: 0.000432870561 xtb: 6.7.1 (edcfbbe)
C            5.53876532167270        1.16325344496655        0.60262866435934
O            4.93587707748568        0.08494631447359       -0.10869740528111
C            3.57471516392399        0.21010006262439       -0.29426416351451
O            2.93036213648130        0.03387563636623        0.95193157749935
C            1.52357530879575        0.17383499349220        0.91039376029069
C            1.03157322490777       -0.09386159717324        2.34176839563147
O            1.41048344059708       -1.36768169529087        2.78947401248530
C            0.89281498750884       -0.81602609514446       -0.08189942945799
O           -0.46275380832187       -0.47416814160989       -0.33841606527934
C           -1.47468210720287       -1.30845596056425        0.15971827070319
O           -2.04573803095570       -0.80420208891950        1.33111146302344
C           -2.69750887002160        0.45323319842277        1.16179463831584
C           -3.21570225947434        0.91005078282532        2.53817591575413
O           -4.37940864136035        0.25371298228484        2.96477614125845
C           -3.81597488918071        0.33935373799622        0.11751011129333
O           -4.44003118761721        1.59407921129520        0.00106032607220
C           -3.20004330124851       -0.13435428886102       -1.21172270733012
O           -4.18071974469137       -0.32388148410746       -2.20972291812885
C           -2.51799979497498       -1.48190295719696       -0.95640215014439
O           -1.85092630860798       -1.96530998475943       -2.09155580197431
C            1.59369040740845       -0.78254961645484       -1.45243782231964
O            1.16373558601075       -1.84447814491655       -2.26115742348855
C            3.11894456486207       -0.86177285777786       -1.30559714241941
O            3.78556146112875       -0.73765468436897       -2.52642024617466
H            5.12317790779727        1.24176422621655        1.60836053482225
H            5.38726498941665        2.10374741588689        0.06498658746112
H            6.59628500369850        0.92171827589805        0.64741356286362
H            3.31897150600010        1.22076012341413       -0.68306511226930
H            1.25295936744422        1.19617268637643        0.60406865812968
H            1.42957095504138        0.68471372083937        3.00311678989113
H           -0.05902702452727       -0.07177575519837        2.36315466453776
H            2.37726157055446       -1.42646946794174        2.75289513950673
H            0.96487720028403       -1.82898343206127        0.33260506509004
H           -1.06656669402312       -2.28793159298010        0.43997839850544
H           -1.96393069179188        1.19199693349979        0.80884546038417
H           -2.44565559612285        0.67347078274513        3.27528384240642
H           -3.36784086060057        1.99277227632615        2.50036147945607
H           -5.14554520911158        0.64146465991190        2.51885526209428
H           -4.52985711021383       -0.42754220651251        0.45258213829840
H           -5.20372992128071        1.51113007765402       -0.58973379815109
H           -2.43716054925557        0.58305502074312       -1.53652484415198
H           -4.32849157761631        0.50198322540398       -2.69043071411822
H           -3.27544006935432       -2.20200815338507       -0.61452797112074
H           -2.49350794501346       -2.01816734608812       -2.81754798208377
H            1.33421445697500        0.18057834925459       -1.92656436783289
H            0.18899041273219       -1.86257142448531       -2.27674374075893
H            3.40227227161376       -1.84410376879326       -0.91719125698483
H            3.47618686239636        0.04724659423165       -3.00360472823272
