48
 energy: -84.847551180066 gnorm: 0.000288153732 xtb: 6.7.1 (edcfbbe)
C            5.54619730603349        0.89980896337690        0.68590764203649
O            4.90346520910588       -0.07078519365222       -0.13715039834752
C            3.55443403366297        0.14907946634146       -0.33217743539780
O            2.88281698635270       -0.03407782068743        0.89709193910642
C            1.48625961247556        0.18318035680757        0.84074739340351
C            0.95268116059075        0.04178726768198        2.28182982281884
O            0.83606696061282        1.28644924348606        2.92575116161743
C            0.85751117393948       -0.82112732865924       -0.13938976115050
O           -0.51635550002299       -0.55270924956216       -0.36846344714054
C           -1.47247223085080       -1.43592542232983        0.14485616173035
O           -2.04380335636124       -0.95896249859246        1.33143375094179
C           -2.66891165034825        0.31310184738129        1.17172131744944
C           -3.14181022504568        0.78798248803612        2.54114248310949
O           -2.03842351849630        1.30591587592723        3.25262467534800
C           -3.82347203277493        0.19576896504021        0.16975225830351
O           -4.43507198037007        1.44885759725595        0.01806054038937
C           -3.27981398845923       -0.32010286130787       -1.17594908469048
O           -4.31086323507964       -0.40445605626896       -2.12431613844516
C           -2.54677999226047       -1.64817737739486       -0.95100720600462
O           -1.94348029595782       -2.06280864838353       -2.15055355906481
C            1.53184282839137       -0.71933405907804       -1.52099410351482
O            1.04988839929077       -1.71751386522354       -2.38010552530279
C            3.05531543712087       -0.85086089546768       -1.39734750672441
O            3.71189832586809       -0.68023774973544       -2.61782311528443
H            5.09559307433264        0.91747600081977        1.67948638546082
H            5.47295605570979        1.89127239008203        0.22954876975735
H            6.58382914196978        0.58550710538302        0.74251190078641
H            3.37128569418932        1.18931101676130       -0.68558794419437
H            1.28177691020848        1.20378375956746        0.47958668094099
H            1.68560734552264       -0.55303200727068        2.83531799078479
H           -0.00546879485752       -0.48003874235940        2.27477969667189
H           -0.10126250166973        1.54522941879698        2.94620365443988
H            0.99658237099106       -1.83643430556810        0.25185064681406
H           -1.01250109368398       -2.39630851451876        0.41579677892842
H           -1.93697963895727        1.03317589121478        0.78348043378963
H           -3.58033297725258       -0.06615225825415        3.06845713174496
H           -3.89870051789538        1.56364646897797        2.38137241277919
H           -2.33325604821243        1.56747635413974        4.13647065090066
H           -4.55455885284797       -0.53252655995921        0.56380627256704
H           -4.89482565480434        1.46124828782131       -0.83804366974275
H           -2.56693831236601        0.40511147690252       -1.58101820114542
H           -4.88611068399017       -1.15941089514877       -1.92917574223179
H           -3.26568517572706       -2.39017603035993       -0.58000639498420
H           -1.86576722525478       -3.02746963652707       -2.17569160705768
H            1.29493335071530        0.27771368141869       -1.92963706235474
H            0.08075957521862       -1.62382907397726       -2.45517169045307
H            3.31505619071816       -1.86038910587355       -1.06592368222653
H            3.45557734505938        0.16113226225933       -3.02499831882413
