48
 energy: -84.850599263313 gnorm: 0.000362036743 xtb: 6.7.1 (edcfbbe)
C            5.59572963918387        0.94250468530765        0.63181298919948
O            4.89134443993131       -0.04196415588097       -0.11992779919923
C            3.54728572671514        0.21889670880461       -0.31418431298392
O            2.86576469009119        0.10691136675800        0.91664779287369
C            1.47152040507681        0.35326518433776        0.81840158117106
C            0.91988044595505        0.28694628675823        2.24933274192290
O            1.47880550871424        1.27653375096335        3.06975991825965
C            0.83764506354227       -0.69194856223678       -0.10996706653805
O           -0.53342580814829       -0.44733227349527       -0.37314820769535
C           -1.48916120488795       -1.31413437795787        0.17783011706834
O           -2.08922924991603       -0.79099201801041        1.32541613401339
C           -2.76975039249454        0.44100251523385        1.09257892200778
C           -3.30902457561636        0.93133917432183        2.43359679307559
O           -2.25932688729254        1.56350896049442        3.12860368248330
C           -3.89360658144062        0.26616235806999        0.05072727913184
O           -4.58592560938895        1.46399315309202       -0.16090623000953
C           -3.29450602948044       -0.30864974221807       -1.24140487605095
O           -4.33274091696835       -0.54202225787567       -2.15731904018470
C           -2.54327343649204       -1.60607242895610       -0.91236639166875
O           -1.93670876787289       -2.08026881470637       -2.09067869670618
C            1.52376575401558       -0.69002956466922       -1.49110401685830
O            1.05862138090802       -1.76866150839671       -2.25718154645011
C            3.04132418770315       -0.80157193788431       -1.35131815070649
O            3.62020254671643       -0.54433649876961       -2.60090242718426
H            5.22485831478600        0.98264727986728        1.65595834112926
H            5.49241239432909        1.92440121130543        0.16219611815116
H            6.63403729934067        0.62450962462858        0.61972571854145
H            3.39526459185025        1.24325967582964       -0.71757048568988
H            1.30256150529929        1.35857262092828        0.40277453353002
H            1.12260602501537       -0.71306983741852        2.65313095093288
H           -0.15606654851711        0.46359065991374        2.24872784893816
H            2.43770967201207        1.14624506638813        3.09461739926522
H            0.96943538085240       -1.68433276968399        0.34131139289270
H           -1.01568969726994       -2.24897437929406        0.50892145420822
H           -2.04619110739869        1.18034281971009        0.71942108593764
H           -3.68517499388583        0.06384720170004        2.98722660998145
H           -4.12934932213716        1.63217537225879        2.23645340790237
H           -2.56963943204105        1.83725591755125        4.00300422729350
H           -4.64169427302108       -0.43666196745275        0.43381652612772
H           -4.03760622078889        2.07968184726179       -0.66924854045410
H           -2.56683131314737        0.40682108093614       -1.65543871085340
H           -3.95735127776457       -0.95835536812078       -2.94847769528607
H           -3.26448128947558       -2.32760225780813       -0.51074710048226
H           -1.80274836378858       -3.03736733763509       -2.03655463559509
H            1.29614309226835        0.26194042236130       -1.99344070378240
H            0.09691581177678       -1.66330701496879       -2.38559378380932
H            3.29258909721630       -1.81014053847375       -0.99655432624364
H            4.57254731748478       -0.71736627141326       -2.55135386460620
