48
 energy: -84.855006114751 gnorm: 0.000512981581 xtb: 6.7.1 (edcfbbe)
C            5.60357206187745        0.98307707098489        0.55787862633039
O            4.92047096130508       -0.08426839978881       -0.09395474230530
C            3.57822116404136        0.14588240292323       -0.31735283019198
O            2.90349048472426        0.03681017131311        0.91981354608707
C            1.50171243584122        0.22118623578742        0.86149939055802
C            1.00234110875224        0.04905713618805        2.30540229520713
O            1.34222323330346       -1.21100705622717        2.81996449046392
C            0.84697461198337       -0.81255332924287       -0.07236689020697
O           -0.51086503886059       -0.48548303284841       -0.32912333626330
C           -1.52185967714248       -1.28720564498260        0.22511852363240
O           -2.07321444555741       -0.70470812716089        1.37238076171357
C           -2.69111507907760        0.55735596442190        1.13730944546503
C           -3.25967710241596        1.00086801038164        2.48884106705638
O           -3.79052627808714        2.29927371278259        2.36124029216057
C           -3.78207516019423        0.46163779257454        0.06029274829621
O           -4.27101895126967        1.72840025564160       -0.30699063087081
C           -3.22909752795249       -0.18780431620300       -1.22005222527264
O           -4.25818617972147       -0.40377066689678       -2.15116591689766
C           -2.57815809875552       -1.53145702050093       -0.87194028740693
O           -2.00171873835243       -2.18359254679929       -1.96489052543322
C            1.54281244763421       -0.79586701392338       -1.44412348047138
O            1.03072955148257       -1.77693972942294       -2.30786989074343
C            3.06977035042356       -0.89930139635758       -1.31851430337167
O            3.68919144918112       -0.64510397745955       -2.54987915506976
H            5.16829758400680        1.17623550003682        1.53975774211893
H            5.55912175009157        1.88907889716236       -0.05286876956799
H            6.63133847619985        0.64760404090469        0.65840279935765
H            3.40973705643941        1.15664614755517       -0.74218537461642
H            1.26201605682265        1.22905077608828        0.49247788759419
H            1.42510516428748        0.84927012915175        2.92367373868235
H           -0.08680597345472        0.10464105472933        2.32456815286727
H            2.30755384015461       -1.29333210676953        2.80051040424664
H            0.92395715818558       -1.80546560496139        0.38832993613188
H           -1.11690948157086       -2.24791065671845        0.56950588470950
H           -1.93900031646838        1.28380520243872        0.79600025883760
H           -2.44745208630918        0.97033525691204        3.22384971966220
H           -4.03271951005724        0.28286815337652        2.78945069231854
H           -4.10995241870980        2.60412106883599        3.22302635932407
H           -4.60342155282330       -0.17177006320783        0.43620416296155
H           -4.39843338450144        2.25875339368870        0.49950912022994
H           -2.46257270807308        0.47917622146383       -1.64521408231193
H           -4.72978773385333        0.43475194395837       -2.27277685658644
H           -3.34871551748418       -2.20904376244027       -0.49165939943803
H           -1.23994381630167       -1.66982524147958       -2.28662869825795
H            1.30104126011804        0.15847856433506       -1.92735878080661
H            1.17221693736737       -2.66029020516130       -1.93519559548838
H            3.35760004154477       -1.89105916483065       -0.93621265205603
H            3.25822059173179       -1.18466606536412       -3.23320258948963
