48
 energy: -84.848005768176 gnorm: 0.000963170801 xtb: 6.7.1 (edcfbbe)
C            5.73441678273539        0.73893452146320        0.67715424888829
O            5.03281523840833       -0.19282189966819       -0.14260801583046
C            3.70033735071126        0.11373734325338       -0.35307572527798
O            3.00777435402113        0.04880697320065        0.87321976583297
C            1.63172786579386        0.35476281329961        0.74743756279136
C            1.04807128487134        0.48095961632064        2.16981024308883
O            0.65750026875722       -0.73082661225134        2.76134580069804
C            0.97565465539262       -0.71964195083036       -0.13578959174200
O           -0.40604350332308       -0.47753236491873       -0.35612832767597
C           -1.32923515580229       -1.33957391038123        0.24258136829735
O           -1.88121609661144       -0.80515462412025        1.41498231478176
C           -2.59209564234295        0.42084746436142        1.22455202489126
C           -3.06573740575207        0.87390793634813        2.61331757741333
O           -2.00156489235007        1.18019357745076        3.47619332376513
C           -3.76813854707539        0.22339852460054        0.24535953552277
O           -4.41431572425888        1.43489913398070       -0.04723286100167
C           -3.22300531899401       -0.34552571892268       -1.07339336805509
O           -4.22000775496940       -0.58651278911697       -2.03119977076055
C           -2.43426198413584       -1.63240677937994       -0.78560833935322
O           -1.82801570314967       -2.14063277609713       -1.94364384711823
C            1.64374771575888       -0.78646928513041       -1.51843247950536
O            1.18971368243830       -1.91195850772773       -2.22340140346718
C            3.16529154892735       -0.89633104382009       -1.38614341723683
O            3.73525012233455       -0.64440973039114       -2.64135051163403
H            5.30039458224523        0.76877002289741        1.67721476536046
H            5.70153683048379        1.73579835374567        0.22878647345055
H            6.75630380766898        0.37399102828905        0.71695961224685
H            3.59095362944412        1.13980358293295       -0.77014789081372
H            1.52778898429677        1.33112796055963        0.24520127658792
H            1.84146500690416        0.88700251213197        2.80126714047423
H            0.21242438253380        1.18724781187285        2.14808925028160
H           -0.21945207491331       -0.97201091850595        2.41831872201243
H            1.12000720344739       -1.69203864569229        0.35569183483637
H           -0.85206473880486       -2.28241746225078        0.54117795264468
H           -1.91199532064511        1.17193513985256        0.80170885082702
H           -3.70504556597809        0.09374182090804        3.04183471886466
H           -3.63003090824201        1.80146062157415        2.50826172656940
H           -1.54291805050047        0.36697131355793        3.72991564102484
H           -4.46813318817963       -0.50690150696281        0.67971926193368
H           -5.02943617192511        1.67510312725468        0.65860260531944
H           -2.54952132598250        0.38967198569039       -1.52632509460988
H           -4.98570540339808       -1.01430993574911       -1.62012260323667
H           -3.11160381460723       -2.38498421825865       -0.34905226710700
H           -2.46410787911736       -2.06512782893230       -2.67547277151890
H            1.40835968779971        0.13452317050352       -2.07374979544552
H            0.21465382635511       -1.90720484811026       -2.24400025061709
H            3.40899720107441       -1.90785443899978       -1.03451962636232
H            4.68321617315118       -0.84217754069594       -2.60451669627160
