48
 energy: -84.848369428079 gnorm: 0.000350629828 xtb: 6.7.1 (edcfbbe)
C            5.56805819551286        1.01696434315769        0.61989035935160
O            4.94274614320214        0.01532452773016       -0.17962676097230
C            3.58678332605849        0.19744457784377       -0.36181823901077
O            2.93407618753020        0.02696053480817        0.87909043714435
C            1.53883856074600        0.24189306049217        0.82888632031033
C            1.02774885406607        0.14326335454838        2.26731118449850
O            1.24720234100324        1.38419589567942        2.89708978250956
C            0.89051480861597       -0.78227031719945       -0.11722566446714
O           -0.48064548317981       -0.49585201451314       -0.34702502317402
C           -1.45026688700868       -1.35050979009796        0.19480534006750
O           -2.01481474358255       -0.84675287057787        1.37119949559784
C           -2.68635149607820        0.40302055284935        1.20333124040205
C           -3.19407126665948        0.85869591055286        2.59029825823536
O           -4.54516204269961        0.57558808987930        2.83433946555532
C           -3.82772278587112        0.25563736448641        0.18895519010605
O           -4.46194948464257        1.50185292839151        0.04415898797210
C           -3.26492498026366       -0.25942195813668       -1.14042752057390
O           -4.27404165799511       -0.40582411615616       -2.10967219093984
C           -2.51984424631402       -1.57519121724720       -0.89094008776234
O           -1.87238060822492       -2.04560029076391       -2.04393060915927
C            1.56400808356436       -0.75566723273565       -1.50228315603088
O            1.11815088707062       -1.82410131427601       -2.29380093947058
C            3.09327103128410       -0.84351322247158       -1.38774464106363
O            3.73198533347032       -0.70240398232123       -2.62134828595430
H            5.12446884506004        1.04170841211695        1.61641076908430
H            5.46656633158777        1.99768480700253        0.14604756314224
H            6.61349182106901        0.72934962488894        0.67393600335587
H            3.37223268439285        1.22372358669682       -0.73672843718497
H            1.32955196617608        1.25606619102041        0.45245114164078
H            1.58842232743329       -0.65850276230705        2.75954181198631
H           -0.04085408867725       -0.10171265726134        2.26164357364084
H            1.14422059625341        1.28353483743699        3.85384908731509
H            1.00763266430893       -1.78609650378230        0.31054826612987
H           -1.00528346081187       -2.31327369552411        0.47851940103585
H           -1.96774827335667        1.13912475227929        0.82011938130496
H           -2.62786140128409        0.30768635571316        3.34340161866001
H           -3.00092324452781        1.92991991378867        2.70080182997756
H           -5.08733913550642        1.16642806060311        2.28947728323634
H           -4.53971445553921       -0.49070446912187        0.58250477040425
H           -4.91999213054925        1.52200649099785       -0.81134357920057
H           -2.56151001108419        0.47263739843311       -1.55111350059726
H           -4.93658709148229       -1.04469481008002       -1.80357600430255
H           -3.22855967716879       -2.33013585031528       -0.51311093035702
H           -2.47485972533329       -1.94019680147191       -2.79898405520378
H            1.29667725160212        0.20414178936800       -1.97765953467085
H            0.14286936230713       -1.85260922872605       -2.27916810178362
H            3.37547730766743       -1.83662398589322       -1.02594451380438
H            3.45016447086164        0.11649071206038       -3.05679376025298
