48
 energy: -84.856800694274 gnorm: 0.000555341047 xtb: 6.7.1 (edcfbbe)
C            5.66548563188555        0.56375258784557        0.69334215685279
O            4.92550281503668       -0.32441930677220       -0.14122315793547
C            3.61496404978644        0.05467645456964       -0.37049996564510
O            2.89166893662565        0.00513360052425        0.84181573164258
C            1.53245129981804        0.36477025886493        0.68570367642789
C            0.89299373996902        0.50068167632922        2.07545510651780
O            0.30115593136031        1.77582542724903        2.17361906501992
C            0.85337389858682       -0.67288789354796       -0.22758066035047
O           -0.52213300977881       -0.41543400158096       -0.42554882467521
C           -1.45395249309935       -1.29173897188641        0.15870385154368
O           -1.99593759641484       -0.79962003382640        1.34674522064137
C           -2.67871657312414        0.44538350063941        1.21021471081758
C           -3.22972634149059        0.81083524334836        2.58623484862754
O           -2.17621999196487        1.22717845063853        3.42841081905588
C           -3.82392077375776        0.35550400987285        0.17876125363428
O           -4.46855848015789        1.59158593492545        0.03741678763546
C           -3.27699928929301       -0.19111240490609       -1.14710887044487
O           -4.33836485236744       -0.36177755232410       -2.05314143066901
C           -2.55755616656207       -1.52617811262701       -0.88658950173589
O           -2.05183012444210       -2.07439633835713       -2.07352430871777
C            1.54179485418586       -0.66427724220074       -1.59706276689697
O            0.93668838752924       -1.64578215907622       -2.39845713657493
C            3.03965710361707       -0.92377825453903       -1.40954954402484
O            3.66071508289713       -0.76895015207178       -2.65714805251039
H            5.20451265515919        0.63359092960741        1.67891910469155
H            5.71526861126458        1.55657933129410        0.23784878322674
H            6.65779136609163        0.12900197992162        0.76684572466502
H            3.56553873771886        1.08889768637563       -0.77556010613287
H            1.46626480410697        1.35313862137789        0.20254360337932
H            1.69365679727055        0.39500531255972        2.81924426493416
H            0.15191053092349       -0.28574181432811        2.23511676982193
H           -0.48553225858474        1.71835132509580        2.74664906906376
H            0.98739055680376       -1.66595197598087        0.22201884409452
H           -0.97995448260591       -2.24503302471247        0.42824813493605
H           -1.95936647796953        1.21041405758897        0.88658411125516
H           -3.72290171299948       -0.07730997370296        2.99633876138509
H           -3.96258183101250        1.61414622100494        2.45036448982410
H           -2.53843235394925        1.44641662673584        4.29865658389442
H           -4.59353931628843       -0.33287092006742        0.54595636810442
H           -3.92071025895853        2.19411262233658       -0.48740394673104
H           -2.54165606537624        0.52212666081729       -1.55656185846971
H           -4.03728873961430       -0.95320090464757       -2.76136883426472
H           -3.28194124188255       -2.24582427113695       -0.48801491657940
H           -1.15292995357111       -1.73496501120413       -2.23787031358208
H            1.41110834693491        0.32758815458721       -2.05630022095630
H            1.44973776739473       -1.73267830300978       -3.21783174898437
H            3.18367773727862       -1.94302239769380       -1.02166809675071
H            4.61342475557686       -0.91613660764331       -2.56009768177509
