48
 energy: -84.854371769895 gnorm: 0.000295229176 xtb: 6.7.1 (edcfbbe)
C            5.44244626324637        1.28727547702057        0.39719629122000
O            4.88625409128597        0.14961320032702       -0.25760989526475
C            3.51037039592630        0.17767555054500       -0.39827372501510
O            2.90898531567839        0.05365395766666        0.87092722187374
C            1.49720584765239        0.12702930078321        0.83789763809396
C            1.03566703508549       -0.05583439675830        2.29222229995278
O            1.46274224503069       -1.28077796274178        2.82521205429585
C            0.86600634420394       -0.94230229954019       -0.07666739725235
O           -0.48113780054393       -0.57637545063990       -0.34809343568983
C           -1.50692145390954       -1.33709228722997        0.21683965209457
O           -2.04146456958898       -0.71924827882668        1.36368512761624
C           -2.60335478742884        0.56818992832314        1.12806786071322
C           -3.12411700620501        1.04264581973582        2.48921527923864
O           -3.59279175664524        2.36531400145504        2.37128601848043
C           -3.72092698624224        0.52996378921114        0.06808656593770
O           -4.15478343386777        1.81818424579879       -0.27932765183528
C           -3.19866626473751       -0.16375141352466       -1.19653272575164
O           -4.16382675929333       -0.29302330886954       -2.20813140901299
C           -2.63145585494557       -1.53917553811557       -0.81364650204034
O           -2.14999072789914       -2.23695799921591       -1.92488352165535
C            1.58372955410215       -1.06734095701509       -1.42921249968134
O            1.19184567163003       -2.28742672694534       -1.99923090754901
C            3.11053734172853       -1.00630102747649       -1.28662348076222
O            3.64815532943712       -0.88622365039111       -2.57712785631484
H            5.05542305795474        1.37296930953914        1.41304466132647
H            5.21166434055669        2.19680854243075       -0.16424939057470
H            6.51432686891552        1.11408747774014        0.41360336238556
H            3.17629304524430        1.12711785986060       -0.86805865891235
H            1.18317978524203        1.11403446025318        0.46427423093651
H            1.41792262524295        0.78070234385680        2.88953478190747
H           -0.05424561396497       -0.06823419464940        2.32906145878892
H            2.42976038603562       -1.31396209718720        2.77225077701386
H            0.90500077298890       -1.91842445446414        0.42169456742166
H           -1.13449267317899       -2.31035801551037        0.55829576509321
H           -1.82434485345588        1.25619132887377        0.76893187897326
H           -2.29964272376744        0.97285194903406        3.20728270585336
H           -3.92491277963937        0.36418383478420        2.80772352923640
H           -3.88455869769185        2.68306983321446        3.23815135164141
H           -4.56495397842767       -0.06114542461164        0.46909846724362
H           -4.22050497661451        2.35346401592609        0.53208375055749
H           -2.39420505615569        0.43991818095504       -1.62955051580928
H           -5.01226264671599       -0.56254170254443       -1.82647547332603
H           -3.41993123150736       -2.13009767310665       -0.31405852070796
H           -2.67466607928149       -1.96649860998051       -2.69800966090555
H            1.26305805901984       -0.22509287544944       -2.06084493646796
H            1.59485741970559       -2.36382027075939       -2.87765613279564
H            3.46193232832725       -1.92612718571060       -0.79713401171651
H            4.61439558738801       -0.84277268359146       -2.51509389692681
