48
 energy: -84.858668490916 gnorm: 0.000432700235 xtb: 6.7.1 (edcfbbe)
C            5.56094705709560        0.84437801081430        0.55891601923502
O            4.87605802574235       -0.14091809430825       -0.21186142872226
C            3.53157200337586        0.11867526168237       -0.40838015223947
O            2.85745239602747        0.05656411835708        0.82788352959848
C            1.47560674713071        0.34326982380926        0.73436448641158
C            0.93647113954540        0.38932182153101        2.16294690451180
O            1.40626491705583        1.57415751086701        2.76238531262942
C            0.79352979052359       -0.72094526335899       -0.14463582147851
O           -0.57105270680022       -0.44017581151204       -0.39295609664412
C           -1.54787071879467       -1.25299850448093        0.20766372306797
O           -2.10655213674629       -0.66482439925149        1.34520564553114
C           -2.76763364652271        0.57406992985016        1.09304920364740
C           -3.31722532017160        1.08390202689021        2.42209699656333
O           -2.25099145118892        1.53092500060588        3.22616216722881
C           -3.88969821511878        0.39764437897249        0.06166697264675
O           -4.46930033238602        1.65134847373232       -0.18470013202991
C           -3.31190087347805       -0.21979782586884       -1.21732490925467
O           -4.36917343634555       -0.41642661658136       -2.12555441330720
C           -2.61713844802762       -1.54186679730656       -0.86018007110627
O           -2.07609947225816       -2.16785552889027       -1.99134128862675
C            1.47799881870641       -0.76661251196254       -1.51905914394954
O            0.89317231019937       -1.80907926617564       -2.25672329856746
C            2.98918381313223       -0.95344275264058       -1.36659581198387
O            3.56129607672978       -0.85380206615234       -2.64301666888669
H            5.10608987041734        0.93976536132817        1.54542846871302
H            5.53300671625584        1.80971031686461        0.04592792526931
H            6.58269514753766        0.48644312217915        0.64115251314806
H            3.38281066888976        1.12589469486895       -0.85467495645397
H            1.33211760375737        1.33331077574250        0.27411543221484
H            1.31408349140713       -0.49160852198113        2.69688368688263
H           -0.15709353013576        0.37026501477480        2.14596725570880
H            1.01837320559016        1.65160884981289        3.64496500031709
H            0.89830139562676       -1.70186536469798        0.33588984229266
H           -1.10587141300714       -2.19442395549295        0.56103472066652
H           -2.04380022226384        1.30295138999916        0.70380484526198
H           -3.85131409519894        0.25897546745738        2.90832589649645
H           -4.01114020076729        1.90083696819484        2.19651746221040
H           -2.61668584971835        1.89000436181902        4.04751913003382
H           -4.64391071730221       -0.29680594004152        0.46669965019951
H           -5.05853358252774        1.56186880611642       -0.95056291830129
H           -2.56622641782150        0.46897390672546       -1.64412211408070
H           -4.06364283648771       -1.01544884532712       -2.82384820322047
H           -3.36186830975007       -2.23005799191321       -0.44260724880650
H           -1.16142079693698       -1.86230367281252       -2.13559649513205
H            1.29820905451473        0.19476087873929       -2.02526735325424
H            1.39867594672407       -1.92279412179824       -3.07758225316840
H            3.19474058093214       -1.93601586347979       -0.91712250760683
H            4.52372696500001       -0.93683956890581       -2.56838251998563
