48
 energy: -84.855110407668 gnorm: 0.000848486147 xtb: 6.7.1 (edcfbbe)
C            5.64753022501959        1.01024463414760        0.62306609424144
O            5.00424255427595        0.02532112351085       -0.18340189894986
C            3.64503536069788        0.22004288533231       -0.34767562774165
O            3.00248852731061        0.07060484052504        0.89731709892683
C            1.60948182718748        0.29487852244608        0.84201123594741
C            1.08526249641708        0.19933882798629        2.28108368934882
O            1.57232680262367        1.21526364792796        3.11517555903238
C            0.95027866088379       -0.73903339177147       -0.08751885556750
O           -0.41541649025963       -0.43841010328766       -0.33311233665744
C           -1.39954384424261       -1.26966744745747        0.22062723949820
O           -1.96075867737737       -0.72684755831853        1.37833383526621
C           -2.63932075245422        0.51596937224738        1.18303072059753
C           -3.23392428766213        0.90054564387877        2.54679978430526
O           -4.08524695088989       -0.09458775874488        3.04707919108761
C           -3.73926020090552        0.40407137514038        0.11514561084927
O           -4.34609071046952        1.64474461722486       -0.14015470824904
C           -3.16700616036585       -0.19643252814028       -1.17736952532672
O           -4.17634584369152       -0.45636846248270       -2.12357635697598
C           -2.46539364994645       -1.51783604288984       -0.85934234438807
O           -1.81798493690621       -2.06084668079752       -1.97911862877575
C            1.62457262154089       -0.77922312626397       -1.47373389977968
O            1.20715788654444       -1.91801935117253       -2.17861942581437
C            3.15136330989382       -0.82106697946161       -1.36848507562623
O            3.68329225964789       -0.54596426821868       -2.63548508813947
H            5.22600036258640        1.01385303178027        1.62916410458981
H            5.53582221649186        1.99934256920365        0.16976104040454
H            6.69391376326216        0.72189945764432        0.64997797948933
H            3.43687559193087        1.23856038428954       -0.74392780939576
H            1.41593230812407        1.30061743607444        0.43105621570580
H            1.44483746761608       -0.73504542044862        2.71643585727952
H           -0.01024493723545        0.19210887825092        2.26364584177320
H            1.30848519440412        2.08178601175391        2.77426383639260
H            1.04812781702023       -1.73339355753500        0.36682198594332
H           -0.96606292809191       -2.22839868703001        0.53316070097927
H           -1.91161457222211        1.27592944348092        0.86333400708156
H           -2.41787007392655        1.10169483159984        3.25127263132835
H           -3.84571833440928        1.79661230871565        2.42863531863372
H           -3.57362752193542       -0.90973135160876        3.15101477354755
H           -4.54001855888394       -0.24213656252939        0.49231340155404
H           -3.67735410731147        2.28716168144999       -0.42164186597165
H           -2.41957046191177        0.49497424082240       -1.60102546003221
H           -4.79407197104358        0.29093995415802       -2.13584578638383
H           -3.20886580840074       -2.22413743052059       -0.46189388427056
H           -2.46165684061052       -2.10036980164629       -2.70529984218208
H            1.34663514704906        0.13365284091693       -2.02269656118573
H            0.23326108566076       -1.92586287533732       -2.23017697865920
H            3.45096679140146       -1.81737647610934       -1.01723464142849
H            4.64241834260821       -0.68271571900779       -2.61223212963017
