48
 energy: -84.850676237125 gnorm: 0.000586481849 xtb: 6.7.1 (edcfbbe)
C            5.69636423257519        0.82612981496124        0.62605363401920
O            4.99082944669803       -0.16636410890369       -0.11556853302202
C            3.66783564053002        0.14012953222510       -0.36076077641720
O            2.96990803933695        0.10578874196026        0.86622336853625
C            1.58806079901892        0.38268298673636        0.76847808392798
C            1.03801117178722        0.40578436010924        2.20003389162262
O            1.57790060564637        1.43343135861849        2.98528500764399
C            0.90974009316117       -0.68958817863040       -0.10100625149700
O           -0.45642519566079       -0.40660231166187       -0.36535274940251
C           -1.43802533502031       -1.20964370736067        0.23543465934590
O           -2.00951830796085       -0.60844494539230        1.36104688189153
C           -2.75580632282357        0.58157478682713        1.09554042500746
C           -3.30939972625190        1.05410569456201        2.45437064633823
O           -3.69432791433201        2.40034232715345        2.45835007250623
C           -3.87521829556578        0.30885092977444        0.07015451851625
O           -4.68197048195079        1.42209924675141       -0.18416604932177
C           -3.24543438275062       -0.26077205239825       -1.20999068313523
O           -4.18038746754744       -0.51067313668660       -2.23015208330758
C           -2.48889422833948       -1.54416928061819       -0.83671264753514
O           -1.82456802900768       -2.10063090363106       -1.94088072136827
C            1.59407107805200       -0.76714562256469       -1.47548471978151
O            1.14233215623603       -1.87648805121009       -2.20899029619050
C            3.11843344844746       -0.89490271091271       -1.35062640989209
O            3.73960639693776       -0.66931823626354       -2.58583885786002
H            5.24312467878416        0.96128612461792        1.60967187911786
H            5.69740399403360        1.77450679791301        0.08124795457572
H            6.70870656121313        0.44584322925653        0.72280243413328
H            3.57079402647533        1.15096407212694       -0.81233396314939
H            1.44222824635491        1.36408395138323        0.28595259094809
H            1.32429848669510       -0.52364099270247        2.69594298708422
H           -0.05575274433468        0.46795021413562        2.15967674154587
H            1.43557430969892        2.29033265511987        2.55839979221664
H            1.00950173083139       -1.66190546671639        0.39790483879242
H           -0.99156315530281       -2.13961153916858        0.61225812258602
H           -2.07844482172847        1.34511099443497        0.68297452508148
H           -2.54994330026536        0.84179768906478        3.21483774092711
H           -4.20641084667928        0.47943187770189        2.69330922031338
H           -2.91619266451583        2.97291485550351        2.51152242513678
H           -4.55246181396302       -0.44304852495403        0.49589184938449
H           -4.15812084617448        2.14405587973448       -0.55965559066911
H           -2.52122453935997        0.45019664199289       -1.62708462418811
H           -5.04677306402828       -0.71159012479932       -1.84892461946084
H           -3.19367989732536       -2.27377363257498       -0.40840912580555
H           -2.43424677753975       -2.07232926246638       -2.69778077471974
H            1.36649444648275        0.16486770171466       -2.01862686924025
H            0.16718313974370       -1.90294904659984       -2.19509341163646
H            3.36481044714461       -1.89251063161586       -0.96118850272500
H            3.41757598974775       -1.33432797762922       -3.21486307143228
