48
 energy: -84.851185828737 gnorm: 0.000824948789 xtb: 6.7.1 (edcfbbe)
C            5.37139465657741        1.35676365950770        0.54894945009866
O            4.82449339732643        0.25918524541298       -0.17637632662177
C            3.45728676616469        0.30289143181377       -0.36250290150396
O            2.80583283795956        0.17005552594417        0.88420730725432
C            1.39449116329213        0.24494892326549        0.80812052158683
C            0.87495171764789        0.10452099509928        2.24641624650383
O            1.03018960467702        1.27886432101873        2.99610680437424
C            0.80079400726381       -0.84319715763729       -0.10948066243350
O           -0.55683514068479       -0.53458075030672       -0.39299287623640
C           -1.55748710924175       -1.33403137133315        0.16352903564905
O           -2.12716162229328       -0.73436736322731        1.30472665326093
C           -2.70591932632353        0.54251626966399        1.04714123875962
C           -3.19978234532327        1.10374439704486        2.38740130017265
O           -3.50695225309995        2.46931968916198        2.31926856177639
C           -3.84257560623122        0.41257562016010        0.02146876827333
O           -4.37497542931881        1.68606263026073       -0.24267514612946
C           -3.29779606902822       -0.24488347726767       -1.25415081420341
O           -4.29732391477723       -0.39007773497007       -2.23267813967418
C           -2.65647639248694       -1.58643888073998       -0.88846781171003
O           -2.11211865788300       -2.24694977673177       -1.99395062244105
C            1.53904772863190       -0.91444631568171       -1.45441508820927
O            1.16108851038895       -2.10807334672624       -2.08724624940502
C            3.06773096511485       -0.86152138154019       -1.28270736196324
O            3.70130251922660       -0.81099030866649       -2.53112315018233
H            5.03972451689679        1.33356788320409        1.58744761474118
H            5.07890823749868        2.30398990163353        0.08730876504709
H            6.44817660980748        1.22696855828918        0.49429034238155
H            3.14940018452361        1.27088434454488       -0.81978317270032
H            1.09566667229519        1.22630842176636        0.40525664946735
H            1.40288761580888       -0.73530909668266        2.71335559383199
H           -0.19425987094946       -0.10794061179685        2.22957570383152
H            1.97414533821438        1.46778999413584        3.09343305785130
H            0.87787738324576       -1.82321655654170        0.37521319768611
H           -1.15190601790140       -2.29334862900552        0.50613813680155
H           -1.94249945020082        1.22035550523691        0.64067062564088
H           -2.40205544220308        0.99877027336423        3.12603621747624
H           -4.06811456630879        0.51998020592069        2.72221122388323
H           -4.08306209767317        2.61820976060479        1.55053676348834
H           -4.62487172575725       -0.23857087428669        0.45078015124092
H           -4.83823407427662        1.66208687502946       -1.09579664063065
H           -2.53523575203321        0.40239437403646       -1.69953735490682
H           -4.98200028678026       -0.99988035472097       -1.91653007649941
H           -3.41560111386999       -2.22825185440225       -0.40595510001913
H           -2.60468408803295       -1.98336808837069       -2.78889774969814
H            1.21258400044220       -0.04789021070599       -2.05369702154687
H            1.71308423533026       -2.23013125903321       -2.87656385562189
H            3.41207818863917       -1.78768898824982       -0.81092499964695
H            3.59778448710194        0.06622653750745       -2.92939472924362
