48
 energy: -84.856405358600 gnorm: 0.000719652653 xtb: 6.7.1 (edcfbbe)
C            5.66660536918212        0.94726085238570        0.42146423014212
O            4.98794241356336       -0.07659501045651       -0.30189223697429
C            3.62816691093213        0.11921303412306       -0.42634017331039
O            3.03635807543348       -0.07412560504296        0.84325168275250
C            1.63649901491401        0.12017201552562        0.90791321107626
C            1.30846202397967       -0.11641890530735        2.39720789499829
O            0.07995723330901        0.40102602462644        2.81687082506599
C            0.91383016854770       -0.83475513043809       -0.06291476324001
O           -0.44377135972989       -0.47446139947297       -0.30108165585944
C           -1.46921579886770       -1.27531492549066        0.20910148260922
O           -2.02843021473934       -0.74836371993982        1.38210699434227
C           -2.69602130817649        0.50890916173532        1.21436765927394
C           -3.27124865440122        0.85864105931037        2.59223188027128
O           -3.93769886063378        2.09829881325847        2.51147671643263
C           -3.78833182696636        0.43354165701541        0.13626434123853
O           -4.32453497053466        1.69618875001778       -0.16602204162532
C           -3.19566615194332       -0.11679943619835       -1.16774507671973
O           -4.18639342314748       -0.32317912797881       -2.14375977679313
C           -2.52658944816211       -1.46077361693072       -0.88898710027049
O           -1.88227220116893       -1.98233052620236       -2.01998920586044
C            1.55264318413304       -0.79965705024016       -1.46557266867578
O            1.08355467487934       -1.86153978472442       -2.25634282533484
C            3.08104459639455       -0.89583879007191       -1.43328944561083
O            3.62452185585131       -0.60197689860996       -2.68980837745158
H            5.29168466764954        1.00474888595954        1.44469920632084
H            5.53687878535820        1.91181782477909       -0.07750826128827
H            6.71289566421231        0.65716158472889        0.41556849287821
H            3.40355103770147        1.14490365820185       -0.78744576271768
H            1.38008544831788        1.15537329019524        0.63062905269133
H            2.07617020976375        0.40290872287305        2.97591974290497
H            1.38758813950327       -1.19021315210696        2.60578390055555
H           -0.63727396744576       -0.12460943388858        2.41802394155895
H            0.97621542336306       -1.86100589977186        0.32290622742455
H           -1.07961541769240       -2.26082963307883        0.50231459322916
H           -1.97083505691624        1.27624773497185        0.91095243887064
H           -2.44238841338121        0.89989531740269        3.30594528191236
H           -3.96263740359335        0.06014119589752        2.88963959677236
H           -4.18749505881072        2.38922085282914        3.39938549099622
H           -4.58501715854496       -0.25071348927097        0.47444963280997
H           -4.49422476753940        2.16974541559848        0.66718751592684
H           -2.43682372345710        0.59106225980300       -1.53406249388634
H           -4.69955717564421        0.49367532278262       -2.23152451011041
H           -3.28968673114678       -2.16356920591463       -0.52209785324539
H           -2.51469433201376       -1.96061827280128       -2.75654182989711
H            1.28130868844227        0.16548115115776       -1.92365854728052
H            0.10805690091572       -1.86380634180091       -2.25634294861841
H            3.38014403366618       -1.89867417108109       -1.09805082013680
H            3.26937489942977       -1.23995405588760       -3.32918962975538
