48
 energy: -84.851105786167 gnorm: 0.000521394453 xtb: 6.7.1 (edcfbbe)
C            5.61960494214811        1.04135832634473        0.56313175886178
O            4.94802996049702       -0.04436558930077       -0.06979769673911
C            3.60477297152526        0.16920985523457       -0.30291729126821
O            2.92486039828372        0.07967329619536        0.93280816821718
C            1.52299298136243        0.25746016321041        0.86353147664566
C            1.01123806559166        0.09911818656563        2.30596929305229
O            1.35656038560578       -1.15305508357818        2.83593358795416
C            0.87961844863540       -0.79387988584083       -0.05614836154794
O           -0.47372055031508       -0.47064464239339       -0.34189941609554
C           -1.49635253053035       -1.25937257858853        0.21442551619675
O           -2.06768977361755       -0.65415171513021        1.33898530852477
C           -2.70305205166957        0.59441948754950        1.06328915286752
C           -3.24106076405107        1.12800446259339        2.40388782628013
O           -3.29923957767733        2.52668801934481        2.46161633114832
C           -3.81280965516807        0.43085766521390        0.00304499219964
O           -4.48622307835984        1.63160990120799       -0.23985024982594
C           -3.20356141238060       -0.18440038281223       -1.26807576870889
O           -4.21383757467174       -0.37888762331256       -2.22505253197207
C           -2.53120658694670       -1.51463691017230       -0.89354452558288
O           -1.94984680302886       -2.13772247424523       -2.00623351950324
C            1.58687333809955       -0.81790410408027       -1.42188173622807
O            1.07928902650714       -1.83604116746533       -2.24654969877017
C            3.11328482904646       -0.90113925879853       -1.28704320212473
O            3.73805487262831       -0.65830303962893       -2.51816906367559
H            5.18462967764390        1.24500896885701        1.54304142413995
H            5.56312082443098        1.93691923326005       -0.06185494285249
H            6.65163755166187        0.72014802608449        0.66648627486809
H            3.42948625642439        1.16960842715684       -0.74922366542879
H            1.28244006810945        1.25940452140941        0.47889951049768
H            1.42133500445009        0.90866106361049        2.91985986162230
H           -0.07869013450597        0.14297771317295        2.31375111290096
H            2.32294464370701       -1.22225648020469        2.84379002815861
H            0.94703073429020       -1.77494262126977        0.43071131337712
H           -1.09626977994205       -2.21229366889045        0.58535687327270
H           -1.94811113917548        1.29476833870255        0.67160543269611
H           -2.61078181860101        0.71596186818259        3.20082065435170
H           -4.26439666708494        0.77926200495861        2.55101337996899
H           -2.40537310752722        2.89555372480490        2.50196230600659
H           -4.57745387684115       -0.25458583401664        0.38547413858134
H           -3.90635337403917        2.25199294484861       -0.70454088245981
H           -2.43336655867309        0.49710308996900       -1.66923686441718
H           -3.89155165912692       -1.01446080612552       -2.88393037936538
H           -3.29552988717841       -2.20227053407669       -0.51638499293398
H           -1.09265561435952       -1.71894827650969       -2.20867373073823
H            1.33924600558598        0.11589052679111       -1.94076025180785
H            1.27650886308764       -2.70528256677883       -1.86509734864106
H            3.41193591197640       -1.88136756477916       -0.88428607527169
H            3.34503721284994       -1.23747602693240       -3.19143649993454
