48
 energy: -84.750787908065 gnorm: 0.000701382820 xtb: 6.7.1 (edcfbbe)
C            5.66835215100671        0.85679278186682        0.60847704284931
O            4.96297545991377       -0.20214803013115       -0.03336475815438
C            3.63614819207994        0.05980286137037       -0.30182456377288
O            2.92022648381845        0.11354990652710        0.91747178731803
C            1.54008412595599        0.38644896177628        0.76326407341626
C            0.94125698797493        0.45280424948593        2.17330182280239
O            1.35357886497022        1.58822696955448        2.88196079423571
C            0.86764760656127       -0.70034183041334       -0.09064539008045
O           -0.46615857834002       -0.35059281020603       -0.41640357886461
C           -1.51711349357535       -1.07026171514363        0.17477590380001
O           -2.08056737899078       -0.39598356140931        1.24802427842085
C           -2.68014250256548        0.90018300557237        0.88338887665309
C           -3.17205080298399        1.67788350713841        2.06888503178874
O           -3.87526437208989        0.69343605520185        3.02115700868039
C           -3.80428546520367        0.63967934637443       -0.12971739085676
O           -4.41174707321845        1.84841560532813       -0.50924997926105
C           -3.22321897814362       -0.05158768374852       -1.36524848227736
O           -4.21352453282121       -0.37685497216953       -2.31294357241286
C           -2.55545136176359       -1.35717927198407       -0.92697464958012
O           -1.88976876796953       -1.99941725167000       -1.98247864338388
C            1.60112491628870       -0.88359814558950       -1.43076682229738
O            1.10938133587987       -2.00012032655738       -2.12214955207377
C            3.10817748412304       -1.06996315936907       -1.21064210450571
O            3.82295010512547       -1.14135168647800       -2.40755987020205
H            5.27847961550176        1.02450813949260        1.61309001680528
H            5.59154828783533        1.77687239297884        0.02231417159795
H            6.70114915012543        0.52471726282335        0.65523151518285
H            3.52114834700279        1.03840688407860       -0.81969323743918
H            1.40462435583502        1.35905516287678        0.26276116468580
H            1.21598371715447       -0.46603832702543        2.70595187496346
H           -0.14434231881661        0.51700521873319        2.09723092189328
H            2.31458950063015        1.55550557486253        2.98959389225231
H            0.89369370132891       -1.65295535795873        0.45485104715334
H           -1.14656433461505       -2.02389473306553        0.57863252867704
H           -1.91420703884667        1.50574664834074        0.38070294501959
H           -2.29822724585129        1.98511384053859        2.66656301241067
H           -3.43144781039316       -0.17906442013196        2.97533385571621
H           -4.81016951329496        0.61925839495591        2.74536664537266
H           -4.56295702801358       -0.03562838604313        0.30274146723362
H           -4.35571876652586        2.44576493618428        0.26247153375196
H           -2.46229822915387        0.60412885671603       -1.81588852311387
H           -4.75260039516292        0.41361735665977       -2.46550630105676
H           -3.33077732243766       -2.01845810746208       -0.50927508190555
H           -2.50674296117364       -2.05602229707162       -2.72978278202589
H            1.43509409431863        0.03242856264866       -2.02459258741189
H            0.13540400820362       -1.95359125362419       -2.16172341102065
H            3.28935596447357       -2.02366100557534       -0.70580861410513
H            3.60652282729175       -0.38754012116425       -2.97708643396386
