48
 energy: -84.855871742033 gnorm: 0.000344931465 xtb: 6.7.1 (edcfbbe)
C            5.58025713095770        1.02177639395538        0.52911549653619
O            4.95474841788131        0.00096527057252       -0.24488593893417
C            3.59154372988851        0.15353813440595       -0.40082152599616
O            2.96418605712344        0.04722278165201        0.85911544720185
C            1.56059596419613        0.21193791106819        0.83781291803049
C            1.07629821011334        0.04713384889607        2.28254920492581
O            1.19818434164326       -1.30572439224762        2.65594891282017
C            0.89107591397905       -0.81155151937326       -0.09556245862443
O           -0.47187605879513       -0.48936663515694       -0.31858280183917
C           -1.45598269141612       -1.31404659708895        0.25146627091134
O           -1.98287134692400       -0.75834297296288        1.42127722232611
C           -2.61296777965870        0.50554735177095        1.22389119655318
C           -3.08998251033192        1.00286337067589        2.59558177189876
O           -2.07164920158281        1.63285752499155        3.33170837191212
C           -3.76949234981615        0.38738287143254        0.22261856521636
O           -4.32133566667639        1.66474824704342        0.03647325475918
C           -3.23701068309523       -0.19419187879817       -1.09345207482120
O           -4.32081468876428       -0.34452222161317       -1.97962302189006
C           -2.54855788015534       -1.53671591507797       -0.80718885593646
O           -2.03883759855771       -2.11558458167908       -1.97874283394236
C            1.55917438745666       -0.79523339638578       -1.47549307524446
O            0.99365787995994       -1.82421542449821       -2.24761094221224
C            3.08070684447219       -0.94397058145017       -1.34626129546283
O            3.69207335476880       -0.93204360429794       -2.60577992989075
H            5.19549418275559        1.01647882215502        1.54957047358357
H            5.40910618951533        2.00154447324934        0.07354811058353
H            6.63860747444249        0.77989601467488        0.52017427113740
H            3.35405257328229        1.15633975518481       -0.82858991428034
H            1.31079829079938        1.22421196159122        0.48099274534620
H            1.70439212642600        0.68314140740039        2.91639025267827
H            0.03261181570604        0.37208357127297        2.35415292324646
H            0.95516744250181       -1.39268806537171        3.58819436703497
H            0.98971600812653       -1.80947834811156        0.34418002816755
H           -1.02565218782925       -2.27581431365398        0.55937871227860
H           -1.88090731541255        1.21411501878846        0.80952537595020
H           -3.40018620137409        0.13478775927574        3.18017767711817
H           -3.94248458190201        1.67065791228099        2.44390568780035
H           -1.93891354256636        2.52904933965644        2.99219017916989
H           -4.52764829579482       -0.30322515784340        0.62435078847976
H           -4.95239596185443        1.61472650107387       -0.69836303074229
H           -2.49541289614257        0.50066287083841       -1.51845362646958
H           -4.04792777377719       -0.93647330285206       -2.69703371393811
H           -3.29336266536090       -2.23411476931874       -0.40521197152565
H           -1.11758082410284       -1.83155284127988       -2.11770204747105
H            1.33261329554525        0.17791976050248       -1.94517846957698
H            1.60216534061427       -2.03619010134519       -2.97467933068825
H            3.32327331794299       -1.91370628977539       -0.90008399436964
H            3.73865641374835       -0.03014998784799       -2.95645433514639
