48
 energy: -84.732135165983 gnorm: 0.000299527429 xtb: 6.7.1 (edcfbbe)
C            5.47478800895076        1.28999379443308        0.47698337374105
O            4.93329288602913        0.25296732515988       -0.33909340365253
C            3.55230738300818        0.26337027043015       -0.42624927063910
O            3.01125715183866        0.03898860959894        0.84620927822197
C            1.59696128679791        0.14537627327806        0.95686647080692
C            1.44392031683104       -0.06126454373344        2.46273884904908
O           -0.00003121068561       -0.03042527688112        2.94383461106507
C            0.93290394489262       -0.85815374213763       -0.04577679487927
O           -0.42760852190851       -0.51044797131222       -0.33244027663979
C           -1.45475402803336       -1.31396524115560        0.15644436946265
O           -2.02026492607119       -0.74046496943995        1.30802398666288
C           -2.56437133927256        0.56345599913471        1.05119012146201
C           -2.98118524456480        1.18137699118327        2.39287327357971
O           -1.92524912067656        1.89880364771680        2.99233256071888
C           -3.73328039354932        0.44904518555148        0.05469063753081
O           -4.35898984722945        1.68460751200128       -0.14639157546475
C           -3.20549782254788       -0.16783114748339       -1.25140783158334
O           -4.29127778474117       -0.34314366166041       -2.12949982487485
C           -2.52121113095630       -1.51215283386987       -0.93339685044174
O           -1.87050782055362       -2.05835997641064       -2.05573354291916
C            1.58789873895620       -0.84700938678824       -1.44321117243415
O            1.15516947389667       -1.94930519005113       -2.20193100724275
C            3.11731003006363       -0.85316984567634       -1.39217574194588
O            3.69780825342901       -0.73359535959338       -2.65797508037625
H            5.09552685547781        1.20540785047067        1.49632591799731
H            5.21430145923647        2.26893177228477        0.06336983785636
H            6.54975369657783        1.14068565478110        0.45191623627935
H            3.19416605360949        1.25017030160640       -0.80650863069494
H            1.28143663990151        1.15878354726031        0.64316962805366
H            1.73010415679630       -1.11519459450296        2.65326398752095
H           -0.69010709359630       -0.46557475203097        2.37529971923929
H           -0.30428839394652        0.89673186005038        3.10432369425554
H            0.99474709492099       -1.87543853929200        0.36165532233562
H           -1.07415007456718       -2.29692756148715        0.46670178893964
H           -1.77517786771831        1.17889417774057        0.59543440083855
H           -3.24751435963029        0.37246106736287        3.07598846629874
H           -3.85614661793106        1.81319328033448        2.22812682307876
H           -1.93590653461967        2.81913234752584        2.69752789764017
H           -4.50435140118327       -0.20871089929511        0.47008939834086
H           -3.83387679550301        2.23580895237746       -0.74513955443090
H           -2.44889242465580        0.50146204042854       -1.68470026385246
H           -3.97847877201841       -0.38788360858809       -3.04331021801980
H           -3.27594226318093       -2.19989040761570       -0.53330785889787
H           -2.50560716679426       -2.54903531979633       -2.59746776773573
H            1.26796042726958        0.09047811162473       -1.93259619558991
H            0.18102554217767       -1.94790380110605       -2.23940293104864
H            3.47427861092191       -1.80688335364784       -0.99326975557385
H            3.40314393631756        0.08404936899970       -3.08756304368629
