48
 energy: -84.856853541346 gnorm: 0.000768099320 xtb: 6.7.1 (edcfbbe)
C            5.67378467900492        0.81994558432566        0.45236356835809
O            4.95290557218075       -0.13650769167512       -0.32178627788245
C            3.60517660050815        0.14025485410216       -0.46426075352801
O            2.97295560202892        0.04211255628794        0.79231038704015
C            1.58914917407739        0.32964409033089        0.75161353677141
C            1.09086456264828        0.36107997777368        2.19547448938168
O            1.43668929811184        1.61130476616778        2.74558541188021
C            0.87943244540097       -0.71225375515258       -0.13430458996315
O           -0.49849149472890       -0.43957262793142       -0.30456620350657
C           -1.44306609789280       -1.28311881472797        0.30252330305049
O           -1.95782859308063       -0.75647226809797        1.49006242073540
C           -2.61965116011939        0.50091240941459        1.33495309458195
C           -3.16015276174639        0.89126673481096        2.71773529412560
O           -2.16917424070492        0.84521224168164        3.71072247456462
C           -3.74894133477005        0.41466872976551        0.30312076649574
O           -4.28921734275249        1.69785209279739        0.12987921248769
C           -3.20513435376721       -0.15002950528119       -1.02424877273991
O           -4.22635450938469       -0.19985491314839       -1.99026566274978
C           -2.56140025689490       -1.51366401645782       -0.73492542387545
O           -2.08233498453512       -2.16171591978031       -1.87661184453875
C            1.50724370484562       -0.70157510551625       -1.53496415724526
O            0.89731902242458       -1.71560292159648       -2.29103446716959
C            3.02318875772366       -0.89391329780841       -1.44143552612374
O            3.55116366448488       -0.74742868135180       -2.73223441364449
H            5.25664181193041        0.88868601495078        1.45756981500234
H            5.63537152266261        1.80067388993776       -0.02984284508970
H            6.69493624098481        0.45245496618650        0.48631680886784
H            3.45026990977221        1.16298147318377       -0.87137790202471
H            1.43104099213614        1.32849763920093        0.31413328757878
H            1.58023531584805       -0.45419270737830        2.74270401122458
H            0.00738240789465        0.22023706253039        2.20652038199663
H            1.01110379935102        1.70787691340642        3.60932908264555
H            1.01655027247777       -1.70854699752175        0.30557141698245
H           -0.98841549636033       -2.24202994602276        0.58504492412348
H           -1.89344398427601        1.25103677089357        0.99450071170002
H           -3.99353936797645        0.22677438258871        2.97298351182588
H           -3.52213278454281        1.91872941683519        2.66978475114648
H           -1.91483949238069       -0.08049678495827        3.83427009354414
H           -4.52727499669706       -0.27054043912497        0.68218831958773
H           -4.78669342062467        1.70268024054364       -0.70525785495932
H           -2.44274995628555        0.53369740548838       -1.41568516025765
H           -4.63641529509935       -1.07623337518351       -1.99726100016893
H           -3.31347912064641       -2.18189681626807       -0.29648960110006
H           -1.21112893642984       -1.80315938947853       -2.12272728745914
H            1.30966171344586        0.27858544293429       -1.99652062928488
H            1.37666443403140       -1.79933014128790       -3.13077858312459
H            3.24128371917261       -1.89321596660590       -1.03699531902377
H            4.51391377083333       -0.84845661478162       -2.69722077244429
