48
 energy: -84.847877977214 gnorm: 0.000690188627 xtb: 6.7.1 (edcfbbe)
C            5.61348583771603        0.99374246405961        0.68359660987923
O            4.96363041538035       -0.02377546439254       -0.07538121616362
C            3.62511818627973        0.21343446826911       -0.31645191094505
O            2.92454690668396        0.14627941966691        0.90742069207686
C            1.54263354406581        0.41831335681239        0.79106840333110
C            0.98129995408862        0.47091216887893        2.21086847781531
O            1.40913359148522        1.67819739965476        2.79679040591408
C            0.89266319308140       -0.65873315376716       -0.09246331424050
O           -0.47262065075196       -0.38753570665165       -0.36793643255421
C           -1.45183427700112       -1.20436592760086        0.21479256282956
O           -2.04109292536292       -0.62972142204743        1.34216891438856
C           -2.73210591366389        0.59077113512633        1.08441397847707
C           -3.29330307819086        1.08935692883376        2.41407699509081
O           -2.23696842450536        1.56590655068289        3.21364626513761
C           -3.85112689671086        0.37235951746235        0.05513262731359
O           -4.48823941408988        1.60419824904901       -0.17565533409195
C           -3.22651369653965       -0.20278679559600       -1.23074739513388
O           -4.19702748849346       -0.51228251504387       -2.20676496550398
C           -2.50133366115629       -1.50278189089026       -0.87062655118769
O           -1.83563035009545       -2.06139374554774       -1.97107743771817
C            1.59561719820520       -0.73014731659413       -1.46106216220448
O            1.13651558968717       -1.82624004119614       -2.20549184405569
C            3.11822949874799       -0.85840274962858       -1.30348766813680
O            3.78983836897511       -0.79525908407016       -2.52636317079781
H            5.12352461751788        1.12014779458627        1.65020495249961
H            5.60006300435189        1.94053953668788        0.13588076588473
H            6.63376468899221        0.64634149889338        0.81392427909868
H            3.47584169303608        1.22579530072145       -0.75606881954306
H            1.39649339897996        1.40503601300137        0.32266453547751
H            1.37585436246443       -0.39153421535503        2.76133287102753
H           -0.11151614020278        0.42294144820129        2.18035541732733
H            1.05947081380151        1.72989832332710        3.69722410857969
H            0.99584448086182       -1.63089487997762        0.40666088297622
H           -1.01053976904772       -2.14513806967814        0.56932074837111
H           -2.02728082999452        1.33674023150511        0.69310777923600
H           -3.80331957341380        0.25144320079951        2.90321697846411
H           -4.00722954762946        1.89030591121675        2.19142739532045
H           -2.60586758671729        1.89683902811383        4.04520277958424
H           -4.55817107111613       -0.36556591950737        0.45949859900367
H           -5.35439553700389        1.44842895377846       -0.58033135863713
H           -2.48823937177069        0.50953501064507       -1.61846536156700
H           -4.42960603397404        0.28405701685292       -2.70398492665111
H           -3.23387421917488       -2.21400834909964       -0.46121257828407
H           -2.47659429423078       -2.15200246802082       -2.69507980222926
H            1.36936938153919        0.20987511280347       -1.99450756478689
H            0.16061329099221       -1.84073898061691       -2.19388036664754
H            3.35957251927418       -1.84178268839382       -0.88941615509259
H            3.54187122036388        0.01000631533948       -3.00549168123204
