48
 energy: -84.742708212123 gnorm: 0.000675536418 xtb: 6.7.1 (edcfbbe)
C            5.60276049397755        0.71942848737447        0.90809354425427
O            4.89813832480467       -0.21571780657778        0.09799264145594
C            3.60840123556481        0.17260881022090       -0.23256306751566
O            2.81581454454071        0.16276870187043        0.91975030866138
C            1.42796053481573        0.56551006461367        0.66509964362836
C            0.66788342901404        0.90625699699419        1.91237812677013
O            0.47167770720367       -0.33685874868579        2.78550680195652
C            0.85137395523272       -0.55396573853529       -0.22231224023225
O           -0.53073072166385       -0.37372757895896       -0.46845444757802
C           -1.40172249543479       -1.28158052281943        0.13655619267260
O           -1.96828796218035       -0.75395449549642        1.30518185116712
C           -2.63434980038642        0.49013011646074        1.08265979063895
C           -3.01392518084625        1.04823619061575        2.45709426505653
O           -1.91175509952714        1.12657865808053        3.31780053285969
C           -3.84279845615011        0.27061203696405        0.15092753471425
O           -4.50372612591686        1.46855508417102       -0.16655891430678
C           -3.33601820754653       -0.33897771650119       -1.16563143234345
O           -4.36155362488345       -0.62607871281548       -2.08227830339693
C           -2.51383120339615       -1.60683310121541       -0.87670093563686
O           -1.91090626118922       -2.10633580946249       -2.04247221922591
C            1.59199830987645       -0.60795573406447       -1.56252471646262
O            1.13252041169000       -1.67477437367167       -2.35341069317259
C            3.09593525271570       -0.80738075084952       -1.31342860198143
O            3.85509243838416       -0.70845860672715       -2.48376473319551
H            5.07857462053792        0.88000873924022        1.85236460974433
H            5.71062223079326        1.67232942266541        0.38103898693359
H            6.57653363426281        0.27275405060862        1.08439382482766
H            3.61014927229917        1.20495729746301       -0.65481082246336
H            1.46280390852676        1.49706221183439        0.07675330247666
H            1.34594004618752        1.52692808052440        2.52127165571782
H            1.20134017456001       -0.98347841429246        2.71997427853193
H           -0.40461700796186       -0.71030022520032        2.52138819085178
H            1.01906485191559       -1.52084368039401        0.27359506429001
H           -0.89068338992660       -2.20832096337474        0.42481938488654
H           -1.92941316663920        1.17897134846128        0.59846353766366
H           -3.73447918245396        0.38633911030932        2.94586658803610
H           -3.46178680524331        2.04099750253168        2.31618419438489
H           -1.12617607318934        1.44556773378380        2.81733139214333
H           -4.53034365804467       -0.44468787131902        0.63022361980403
H           -5.01597066185654        1.78189528565260        0.59122821987018
H           -2.69031009560253        0.39269612802065       -1.66285965928524
H           -5.12179754177373       -1.01305721067299       -1.62400145271108
H           -3.16916358004667       -2.37130001566343       -0.42854197149995
H           -2.56114857579036       -2.05158700012887       -2.76213754166189
H            1.43198160636141        0.34897667828864       -2.08881511106575
H            0.15728331981094       -1.68658671312279       -2.34326048879692
H            3.26490286706901       -1.82601249410285       -0.94903310281463
H            3.65100170665409        0.11718657394523       -2.94810269332526
