48
 energy: -84.856423579457 gnorm: 0.000490122571 xtb: 6.7.1 (edcfbbe)
C            5.60146033484401        1.08205347272776        0.50099446021017
O            4.96464122181472        0.01478467917559       -0.19657362311501
C            3.60583927938296        0.17586301305605       -0.37039286110753
O            2.97806129972300        0.00818998148141        0.88540688059645
C            1.57168359158744        0.16203302599942        0.90198756740671
C            1.21302454839365       -0.04826023521240        2.38859643864381
O           -0.06102385218182        0.39053091628409        2.75960763021365
C            0.90555901327666       -0.83910014529783       -0.06371843310626
O           -0.45200108327630       -0.51826276517165       -0.35264846660432
C           -1.47290151342435       -1.33162164030088        0.15039341939029
O           -2.07107443196959       -0.77809527933607        1.29130471542288
C           -2.72507952036106        0.47693179150845        1.04611593525996
C           -3.25670118562796        1.01591260180513        2.38546663431332
O           -2.45581776822495        2.02971831309725        2.93333096925969
C           -3.84063919944197        0.28913872653626        0.00746376040713
O           -4.55762326779650        1.46862502511042       -0.23840391260941
C           -3.22939252907252       -0.26718878210233       -1.28913739856737
O           -4.21231469054201       -0.54692583884402       -2.25585946331348
C           -2.49856683194108       -1.57283663768635       -0.96907385257688
O           -1.80434126765861       -2.08322122660895       -2.07601316831052
C            1.58754361544232       -0.82690791464895       -1.44592842734652
O            1.17068231157343       -1.92297539250621       -2.21915333832962
C            3.11574693499021       -0.88244306454431       -1.36233388514842
O            3.69187696476613       -0.61100524316780       -2.60931236019722
H            5.19632779783312        1.17546533974873        1.50997190590385
H            5.46812251815519        2.02157623865335       -0.04266781250071
H            6.65295305037107        0.81380891560627        0.53741180079282
H            3.37120813935605        1.18415574999613       -0.77120994982741
H            1.29501598024989        1.18168151043642        0.58914344386346
H            1.92512078732465        0.54060242264473        2.97169484718451
H            1.36129029714804       -1.10696846084349        2.63314151314575
H           -0.73275560713571       -0.19714770677096        2.36223794149782
H            0.98069842243758       -1.85230536502247        0.35256817866195
H           -1.06991598981732       -2.30034292267238        0.47736297699650
H           -1.98532358812947        1.18587298653489        0.64623631566247
H           -3.36686035335970        0.17155548285794        3.07529573732786
H           -4.23509880046561        1.47302215848449        2.21957652165215
H           -1.57313073585981        1.68003989175683        3.13973705799509
H           -4.57557470580040       -0.42940563010406        0.38880290037736
H           -3.94647964895621        2.19779369382085       -0.42213329620068
H           -2.49813093534208        0.45369779785368       -1.69038827470482
H           -4.86614440966688        0.16928310629565       -2.25355988371307
H           -3.23710086135062       -2.30324918331081       -0.60631193225384
H           -2.42565972812750       -2.13431412799952       -2.81997601466666
H            1.30773813490412        0.11727162873249       -1.94097285585540
H            0.19639353794986       -1.94403951173337       -2.25906333456649
H            3.42875097990494       -1.86695160156435       -0.98794530079148
H            3.37126672990605       -1.27388479197112       -3.24163564821102
