48
 energy: -84.841361575895 gnorm: 0.000653340566 xtb: 6.7.1 (edcfbbe)
C            5.51996992466561        1.12872673885038        0.58542437946172
O            4.92397989742330        0.06557378444591       -0.15357918368735
C            3.56188981657287        0.18814322789819       -0.33672146877672
O            2.92025713186847        0.07486615965930        0.91633502395552
C            1.51626764075965        0.20994950739646        0.86950386324883
C            1.00776634841740        0.02441987733866        2.30362248486677
O            1.17038529834275       -1.32165158578822        2.67828796703291
C            0.88227518193523       -0.82058494777712       -0.07811379863364
O           -0.47662561937071       -0.49829586319370       -0.34087098556948
C           -1.47684617946640       -1.31842684136383        0.19741522264096
O           -2.04985604449233       -0.77605052182807        1.35005553122155
C           -2.70191957927076        0.47688239743158        1.15255996334469
C           -3.21283265525960        0.92675189021600        2.53385088842150
O           -4.03364166117929       -0.00572334953124        3.18269717020643
C           -3.81740334204016        0.37893994697228        0.08683996381682
O           -4.33614997736814        1.64432791425463       -0.23607197094025
C           -3.23022988268515       -0.21023936897640       -1.20401015212570
O           -4.18128117193771       -0.37442152874777       -2.22322073602164
C           -2.53587438121566       -1.54326892177740       -0.89263878303665
O           -1.89685437441347       -2.07024969878333       -2.02540603840070
C            1.57651268633331       -0.83772119621570       -1.45033116105302
O            1.13445099487715       -1.92371751539495       -2.22061535189801
C            3.10014744143319       -0.92568120142189       -1.29829250647762
O            3.77021793602804       -0.86807316857678       -2.52197002742440
H            5.11989170100390        1.15985963669059        1.59991198770783
H            5.34041622766726        2.08519516944315        0.08563888207813
H            6.58222884298171        0.90504408529387        0.60222208546256
H            3.31098823197246        1.18318755471898       -0.77259774642977
H            1.25120655351159        1.21915618602104        0.51298472659495
H            1.59175066250398        0.68749699008597        2.95106142456850
H           -0.05153706031764        0.30515882287517        2.33822001849937
H            0.98891047158327       -1.41152215966870        3.62416971524199
H            0.96970822367354       -1.81345118383286        0.37728353980509
H           -1.05721715780302       -2.28141450344764        0.51652749854591
H           -1.97375977048294        1.21879461707576        0.79234213044976
H           -2.35151060180185        1.05282460873277        3.19238516141698
H           -3.71584503488624        1.89599279277915        2.42681662763917
H           -4.83641647097528       -0.16868525990768        2.66915995740762
H           -4.61149313657842       -0.29622492765260        0.44236696258695
H           -4.87929870063510        1.98995608985675        0.48590693496709
H           -2.48911263383195        0.48960925577653       -1.60388913592058
H           -4.97861799138885       -0.80061140712232       -1.87500683254006
H           -3.27541916991700       -2.26207619556041       -0.50365306863925
H           -2.48261908429081       -1.93652509291318       -2.78980209050876
H            1.32437506832598        0.11020643798596       -1.95867138715618
H            0.15913430359700       -1.94463049378604       -2.21740773354906
H            3.37242106116387       -1.88924810418890       -0.85825595815940
H            3.47876503442627       -0.09561068258123       -3.02989395399974
