48
 energy: -84.747801246245 gnorm: 0.000450302532 xtb: 6.7.1 (edcfbbe)
C            5.51812776965814        1.22118276760146        0.38610678672248
O            4.93456803790923        0.17600280079143       -0.38937563505493
C            3.54883159276234        0.19960830593791       -0.42746482206904
O            3.04206525096128       -0.00387159637352        0.86138740899094
C            1.62739653093880        0.07623349015397        1.00550572273379
C            1.49918393105375       -0.17644989640946        2.50507387611237
O            0.07186658373573       -0.05848676005904        3.00699892713486
C            0.93784460964853       -0.91815942068820        0.01093044499057
O           -0.42605695848186       -0.57731989759942       -0.24696186933974
C           -1.44301357584095       -1.38741750597800        0.25960403508790
O           -1.99655541448320       -0.81866824479869        1.42163689663007
C           -2.60222787816516        0.46231349028910        1.18355848736949
C           -3.10060211906717        1.01865617050136        2.51450721070162
O           -2.02256610827013        1.63298261450873        3.18699854792515
C           -3.73425342797412        0.33394893825995        0.15845452284647
O           -4.29456666779657        1.60342824670865       -0.04378947796987
C           -3.16675939397871       -0.24752297447213       -1.14277966295600
O           -4.22714681714193       -0.39054645330752       -2.05619699812266
C           -2.50188709437372       -1.59525832875841       -0.83131227993720
O           -1.95705899062956       -2.18727752055298       -1.97956089897568
C            1.56744149264413       -0.88451725317111       -1.39149117193775
O            1.01309620974781       -1.94570946676637       -2.13398132342767
C            3.08872902418966       -0.93951210464655       -1.34468461791241
O            3.57062250569074       -0.81146874354782       -2.65569377500628
H            5.16700551787178        1.16599826354500        1.41691408021693
H            5.26048672481004        2.19387785923189       -0.04272642323811
H            6.58951470418277        1.05309371135091        0.33425642921964
H            3.18604056857988        1.17395055515325       -0.82707408276900
H            1.28663643672357        1.08965971223915        0.72396045200700
H            1.71443357564189       -1.25318039529031        2.65605886406422
H           -0.64971657389519       -0.48037322024127        2.46597380387192
H           -0.17682874791329        0.88648834335083        3.12029394209753
H            1.00895914989281       -1.94146722605342        0.40165080031071
H           -1.04831989097644       -2.36480268487088        0.57345633041806
H           -1.84838500340361        1.14854883894256        0.77522129517047
H           -3.51269027997813        0.19270617433118        3.10497693442688
H           -3.88541474733575        1.74729714149723        2.29011852803817
H           -2.35201919107794        2.04922387955386        3.99551434401866
H           -4.49645804988351       -0.36296528172270        0.54311578165174
H           -4.88460726704814        1.55229073476532       -0.81171714820720
H           -2.40693950161605        0.44043187924312       -1.54626331835672
H           -3.93541718971427       -0.96603082986218       -2.77910116502845
H           -3.26808683494452       -2.28359639438719       -0.45333590403747
H           -1.02291903720641       -1.92714264330021       -2.08294889093919
H            1.28317724551882        0.07390449446505       -1.85733286038258
H            1.51226776474670       -2.02622663887235       -2.96222666611763
H            3.42000176187505       -1.88547388128299       -0.89078910989849
H            4.53586876292259       -0.73237506937975       -2.62675329831810
