      -----------------------------------------------------------      
     |                   =====================                   |     
     |                           x T B                           |     
     |                   =====================                   |     
     |                         S. Grimme                         |     
     |          Mulliken Center for Theoretical Chemistry        |     
     |                    University of Bonn                     |     
      -----------------------------------------------------------      

   * xtb version 6.7.1 (edcfbbe) compiled by 'conda@5dfe00f5fb80' on 2026-06-10

   xtb is free software: you can redistribute it and/or modify it under
   the terms of the GNU Lesser General Public License as published by
   the Free Software Foundation, either version 3 of the License, or
   (at your option) any later version.
   
   xtb is distributed in the hope that it will be useful,
   but WITHOUT ANY WARRANTY; without even the implied warranty of
   MERCHANTABILITY or FITNESS FOR A PARTICULAR PURPOSE.  See the
   GNU Lesser General Public License for more details.
   
   Cite this work as:
   * C. Bannwarth, E. Caldeweyher, S. Ehlert, A. Hansen, P. Pracht,
     J. Seibert, S. Spicher, S. Grimme, WIREs Comput. Mol. Sci., 2020, 11,
     e01493. DOI: 10.1002/wcms.1493
   
   for GFN2-xTB:
   * C. Bannwarth, S. Ehlert and S. Grimme., J. Chem. Theory Comput., 2019,
     15, 1652-1671. DOI: 10.1021/acs.jctc.8b01176
   for GFN1-xTB:
   * S. Grimme, C. Bannwarth, P. Shushkov, J. Chem. Theory Comput., 2017,
     13, 1989-2009. DOI: 10.1021/acs.jctc.7b00118
   for GFN0-xTB:
   * P. Pracht, E. Caldeweyher, S. Ehlert, S. Grimme, ChemRxiv, 2019, preprint.
     DOI: 10.26434/chemrxiv.8326202.v1
   for GFN-FF:
   * S. Spicher and S. Grimme, Angew. Chem. Int. Ed., 2020, 59, 15665-15673.
     DOI: 10.1002/anie.202004239
   
   for ALPB and GBSA implicit solvation:
   * S. Ehlert, M. Stahn, S. Spicher, S. Grimme, J. Chem. Theory Comput.,
     2021, 17, 4250-4261. DOI: 10.1021/acs.jctc.1c00471
   
   for ddCOSMO and CPCM-X implicit solvation:
   * M. Stahn, S. Ehlert, S. Grimme, J. Phys. Chem. A,
     2023, XX, XXXX-XXXX. DOI: 10.1021/acs.jpca.3c04382
   
   for DFT-D4:
   * E. Caldeweyher, C. Bannwarth and S. Grimme, J. Chem. Phys., 2017,
     147, 034112. DOI: 10.1063/1.4993215
   * E. Caldeweyher, S. Ehlert, A. Hansen, H. Neugebauer, S. Spicher,
     C. Bannwarth and S. Grimme, J. Chem. Phys., 2019, 150, 154122.
     DOI: 10.1063/1.5090222
   * E. Caldeweyher, J.-M. Mewes, S. Ehlert and S. Grimme, Phys. Chem. Chem. Phys.
     2020, 22, 8499-8512. DOI: 10.1039/D0CP00502A
   
   for sTDA-xTB:
   * S. Grimme and C. Bannwarth, J. Chem. Phys., 2016, 145, 054103.
     DOI: 10.1063/1.4959605
   
   in the mass-spec context:
   * V. Asgeirsson, C. Bauer and S. Grimme, Chem. Sci., 2017, 8, 4879.
     DOI: 10.1039/c7sc00601b
   * J. Koopman and S. Grimme, ACS Omega 2019, 4, 12, 15120-15133.
     DOI: 10.1021/acsomega.9b02011
   
   for metadynamics refer to:
   * S. Grimme, J. Chem. Theory Comput., 2019, 155, 2847-2862
     DOI: 10.1021/acs.jctc.9b00143
   
   for SPH calculations refer to:
   * S. Spicher and S. Grimme, J. Chem. Theory Comput., 2021, 17, 1701-1714
     DOI: 10.1021/acs.jctc.0c01306
   
   for ONIOM refer to:
   * C. Plett, A. Katbashev, S. Ehlert, S. Grimme, M. Bursch,
     Phys. Chem. Chem. Phys., 2023, 25, 17860-17868. DOI: 10.1039/D3CP02178E
   
   for DIPRO refer to:
   * J. Kohn, N. Gildemeister, S. Grimme, D. Fazzi, A. Hansen,
     J. Chem. Phys., 2023, just accepted.
   
   for PTB refer to:
   * S. Grimme, M. Mueller, A. Hansen, J. Chem. Phys., 2023, 158, 124111.
     DOI: 10.1063/5.0137838
   
   with help from (in alphabetical order)
   P. Atkinson, C. Bannwarth, F. Bohle, G. Brandenburg, E. Caldeweyher
   M. Checinski, S. Dohm, S. Ehlert, S. Ehrlich, I. Gerasimov, C. Hölzer
   A. Katbashev, J. Kohn, J. Koopman, C. Lavigne, S. Lehtola, F. März, M. Müller,
   F. Musil, H. Neugebauer, J. Pisarek, C. Plett, P. Pracht, F. Pultar,
   J. Seibert, P. Shushkov, S. Spicher, M. Stahn, M. Steiner, T. Strunk,
   J. Stückrath, T. Rose, and J. Unsleber
   
 * started run on 2026/09/22 at 13:25:21.348     
   ID    Z sym.   atoms
    1    6 C      1, 3, 5, 6, 8, 10, 12, 13, 15, 17, 19, 21, 23
    2    8 O      2, 4, 7, 9, 11, 14, 16, 18, 20, 22, 24
    3    1 H      25-48
constraining angle 11 10 9 8 to   50.0000000°, actual value:   53.4439158°
constraining angle 10 9 8 5 to -120.0000000°, actual value: -119.6017190°

           -------------------------------------------------
          |                Calculation Setup                |
           -------------------------------------------------

          program call               : /media/aldo/Aldo/envs/chem/bin/xtb start.xyz --gfn 2 --opt normal --input c.inp
          coordinate file            : start.xyz
          omp threads                :                     1


           -------------------------------------------------
          |                 G F N 2 - x T B                 |
           -------------------------------------------------

        Reference                      10.1021/acs.jctc.8b01176
      * Hamiltonian:
        H0-scaling (s, p, d)           1.850000    2.230000    2.230000
        zeta-weighting                 0.500000
      * Dispersion:
        s8                             2.700000
        a1                             0.520000
        a2                             5.000000
        s9                             5.000000
      * Repulsion:
        kExp                           1.500000    1.000000
        rExp                           1.000000
      * Coulomb:
        alpha                          2.000000
        third order                    shell-resolved
        anisotropic                    true
        a3                             3.000000
        a5                             4.000000
        cn-shift                       1.200000
        cn-exp                         4.000000
        max-rad                        5.000000


          ...................................................
          :                      SETUP                      :
          :.................................................:
          :  # basis functions                 120          :
          :  # atomic orbitals                 120          :
          :  # shells                           72          :
          :  # electrons                       142          :
          :  max. iterations                   250          :
          :  Hamiltonian                  GFN2-xTB          :
          :  restarted?                      false          :
          :  GBSA solvation                  false          :
          :  PC potential                    false          :
          :  electronic temp.          300.0000000     K    :
          :  accuracy                    1.0000000          :
          :  -> integral cutoff          0.2500000E+02      :
          :  -> integral neglect         0.1000000E-07      :
          :  -> SCF convergence          0.1000000E-05 Eh   :
          :  -> wf. convergence          0.1000000E-03 e    :
          :  Broyden damping             0.4000000          :
          :  net charge                          0          :
          :  unpaired electrons                  0          :
          ...................................................

 iter      E             dE          RMSdq      gap      omega  full diag
   1    -85.3417237 -0.853417E+02  0.463E+00    9.55       0.0  T
   2    -85.4252036 -0.834799E-01  0.251E+00    9.29       1.0  T
   3    -85.4272742 -0.207063E-02  0.765E-01    9.44       1.0  T
   4    -85.4286610 -0.138681E-02  0.136E-01    9.42       1.0  T
   5    -85.4287997 -0.138658E-03  0.698E-02    9.44       1.0  T
   6    -85.4288122 -0.124861E-04  0.150E-02    9.44       1.0  T
   7    -85.4288138 -0.160624E-05  0.577E-03    9.44       2.5  T
   8    -85.4288140 -0.248388E-06  0.161E-03    9.44       9.0  T
   9    -85.4288140 -0.910516E-08  0.635E-04    9.44      22.7  T
  10    -85.4288140 -0.274171E-08  0.164E-04    9.44      88.0  T

   *** convergence criteria satisfied after 10 iterations ***

         #    Occupation            Energy/Eh            Energy/eV
      -------------------------------------------------------------
         1        2.0000           -0.7382359             -20.0884
       ...           ...                  ...                  ...
        65        2.0000           -0.4260598             -11.5937
        66        2.0000           -0.4242983             -11.5457
        67        2.0000           -0.4216628             -11.4740
        68        2.0000           -0.4198829             -11.4256
        69        2.0000           -0.4194961             -11.4151
        70        2.0000           -0.4175825             -11.3630
        71        2.0000           -0.4086811             -11.1208 (HOMO)
        72                         -0.0618751              -1.6837 (LUMO)
        73                         -0.0348704              -0.9489
        74                         -0.0133605              -0.3636
        75                         -0.0063527              -0.1729
        76                         -0.0006338              -0.0172
       ...                                ...                  ...
       120                          0.3057848               8.3208
      -------------------------------------------------------------
                  HL-Gap            0.3468060 Eh            9.4371 eV
             Fermi-level           -0.2352781 Eh           -6.4022 eV

 SCC (total)                   0 d,  0 h,  0 min,  0.139 sec
 SCC setup                      ...        0 min,  0.000 sec (  0.317%)
 Dispersion                     ...        0 min,  0.001 sec (  0.807%)
 classical contributions        ...        0 min,  0.000 sec (  0.187%)
 integral evaluation            ...        0 min,  0.017 sec ( 12.356%)
 iterations                     ...        0 min,  0.062 sec ( 44.380%)
 molecular gradient             ...        0 min,  0.058 sec ( 41.392%)
 printout                       ...        0 min,  0.001 sec (  0.540%)

         :::::::::::::::::::::::::::::::::::::::::::::::::::::
         ::                     SUMMARY                     ::
         :::::::::::::::::::::::::::::::::::::::::::::::::::::
         :: total energy             -84.808832959741 Eh    ::
         :: gradient norm              0.000343457617 Eh/a0 ::
         :: HOMO-LUMO gap              9.437070260820 eV    ::
         ::.................................................::
         :: SCC energy               -85.427969453583 Eh    ::
         :: -> isotropic ES            0.236018432826 Eh    ::
         :: -> anisotropic ES         -0.013130312312 Eh    ::
         :: -> anisotropic XC         -0.017275268914 Eh    ::
         :: -> dispersion             -0.047679406511 Eh    ::
         :: repulsion energy           0.618221452590 Eh    ::
         :: add. restraining           0.000915041252 Eh    ::
         :: total charge               0.000000000000 e     ::
         :::::::::::::::::::::::::::::::::::::::::::::::::::::

      ----------------------------------------------------------- 
     |                   =====================                   |
     |                        A N C O P T                        |
     |                   =====================                   |
     |               Approximate Normal Coordinate               |
     |                Rational Function Optimizer                |
      ----------------------------------------------------------- 
      ----------------------------------------------------------- 
     |                   =====================                   |
     |                        A N C O P T                        |
     |                   =====================                   |
     |               Approximate Normal Coordinate               |
     |                Rational Function Optimizer                |
      ----------------------------------------------------------- 

          ...................................................
          :                      SETUP                      :
          :.................................................:
          :   optimization level            normal          :
          :   max. optcycles                   200          :
          :   ANC micro-cycles                  20          :
          :   degrees of freedom               138          :
          :.................................................:
          :   RF solver                   davidson          :
          :   write xtbopt.log                true          :
          :   linear?                        false          :
          :   energy convergence         0.5000000E-05 Eh   :
          :   grad. convergence          0.1000000E-02 Eh/α :
          :   maxmium RF displ.          1.0000000          :
          :   Hlow (freq-cutoff)         0.1000000E-01      :
          :   Hmax (freq-cutoff)         5.0000000          :
          :   S6 in model hess.         20.0000000          :
          ...................................................

generating ANC from exact Hessian ...
Using Lindh-Hessian (1995)
 Shifting diagonal of input Hessian by    9.4989514449461219E-003
 Lowest  eigenvalues of input Hessian
    0.000000    0.000000    0.000000    0.000000    0.000000    0.000000
    0.010000    0.010262    0.010500    0.011269    0.012143    0.012669
    0.013285    0.014034    0.014461    0.014770    0.015419    0.016209
 Highest eigenvalues
    1.524087    1.559671    1.586248    1.662166    1.701254    1.802415


........................................................................
.............................. CYCLE    1 ..............................
........................................................................

 iter      E             dE          RMSdq      gap      omega  full diag
   1    -85.4288140 -0.854288E+02  0.657E-05    9.44       0.0  T
   2    -85.4288140 -0.240732E-10  0.388E-05    9.44     371.8  T
   3    -85.4288140 -0.390799E-11  0.172E-05    9.44     837.6  T
     SCC iter.                  ...        0 min,  0.020 sec
     gradient                   ...        0 min,  0.058 sec
 * total energy  :   -84.8088330 Eh     change       -0.1827090E-09 Eh
   gradient norm :     0.0003436 Eh/α   predicted     0.0000000E+00 (-100.00%)
   displ. norm   :     0.0113442 α      lambda       -0.1246014E-06
   maximum displ.:     0.0044193 α      in ANC's #6, #2, #4, ...

   *** GEOMETRY OPTIMIZATION CONVERGED AFTER 1 ITERATIONS ***

------------------------------------------------------------------------
 total energy gain   :        -0.0000000 Eh       -0.0000 kcal/mol
 total RMSD          :         0.0000000 a0        0.0000 Å
 total power (kW/mol):        -0.0000005 (step)   -0.0000 (real)
------------------------------------------------------------------------

 ANCopt (total)                0 d,  0 h,  0 min,  0.163 sec
 optimizer setup                ...        0 min,  0.000 sec (  0.101%)
 model hessian                  ...        0 min,  0.060 sec ( 36.906%)
 ANC generation                 ...        0 min,  0.004 sec (  2.661%)
 coordinate transformation      ...        0 min,  0.000 sec (  0.031%)
 single point calculation       ...        0 min,  0.097 sec ( 59.452%)
 optimization log               ...        0 min,  0.000 sec (  0.142%)
 hessian update                 ...        0 min,  0.000 sec (  0.001%)
 rational function              ...        0 min,  0.000 sec (  0.106%)

================
 final structure:
================
48
 xtb: 6.7.1 (edcfbbe)
C            5.49190400000000        1.18105300000000        0.65040200000000
O            4.89824800000000       -0.06173000000000        0.32983600000000
C            3.65466300000000        0.03389600000000       -0.25284000000000
O            2.74296100000000        0.46547000000000        0.74171800000000
C            1.37488900000000        0.58448500000000        0.40558300000000
C            0.73602300000000        1.02973700000000        1.74002800000000
O           -0.08310700000000        2.17242400000000        1.64772300000000
C            0.83025300000000       -0.74399900000000       -0.16089900000000
O           -0.40472000000000       -0.64148400000000       -0.86610900000000
C           -1.50209600000000       -1.37005600000000       -0.37641800000000
O           -1.78719200000000       -1.14194100000000        0.96771000000000
C           -2.35765100000000        0.14853700000000        1.19398400000000
C           -2.62380500000000        0.31678000000000        2.69465200000000
O           -2.74199300000000        1.67841200000000        3.02749800000000
C           -3.63155200000000        0.38453800000000        0.37290200000000
O           -4.14120700000000        1.68072400000000        0.57085100000000
C           -3.28211700000000        0.23442800000000       -1.11194200000000
O           -4.41241600000000        0.36631100000000       -1.93858400000000
C           -2.69587100000000       -1.15976200000000       -1.31560700000000
O           -2.27624600000000       -1.38716300000000       -2.63068800000000
C            1.79838200000000       -1.25065600000000       -1.25560800000000
O            1.41112700000000       -2.51792300000000       -1.72472400000000
C            3.24998700000000       -1.33981500000000       -0.78879000000000
O            4.08569300000000       -1.67199700000000       -1.86041000000000
H            4.89912700000000        1.72014800000000        1.39414600000000
H            5.60254800000000        1.80153100000000       -0.24621400000000
H            6.47195400000000        0.94632600000000        1.05818600000000
H            3.65833300000000        0.76109400000000       -1.09271400000000
H            1.23375600000000        1.36166800000000       -0.36547600000000
H            1.56365500000000        1.20682100000000        2.43697700000000
H            0.11560800000000        0.22941000000000        2.14178100000000
H            0.45431300000000        2.91897700000000        1.35879900000000
H            0.75282600000000       -1.48712100000000        0.64044900000000
H           -1.24409600000000       -2.44685100000000       -0.39516200000000
H           -1.64540400000000        0.92090500000000        0.87494500000000
H           -1.81915900000000       -0.16739700000000        3.26062200000000
H           -3.56829200000000       -0.15676000000000        2.97342800000000
H           -1.90921400000000        2.11476700000000        2.79009200000000
H           -4.39332600000000       -0.36888400000000        0.63813400000000
H           -3.98769300000000        1.93421300000000        1.49564500000000
H           -2.52745000000000        0.99070000000000       -1.37946400000000
H           -4.90408000000000        1.13327800000000       -1.61962000000000
H           -3.46967400000000       -1.89391300000000       -1.03204700000000
H           -2.95415900000000       -1.00836700000000       -3.20597200000000
H            1.75159000000000       -0.52197600000000       -2.08235100000000
H            0.52056500000000       -2.43214800000000       -2.08969100000000
H            3.34021700000000       -2.07147200000000        0.02656600000000
H            3.72389500000000       -2.47522000000000       -2.25784600000000

 Bond Distances (Angstroems)
 ---------------------------
C1-O2=1.4141         C1-H25=1.0932        C1-H26=1.0960        C1-H27=1.0871        O2-C1=1.4141         O2-C3=1.3766         
C3-O2=1.3766         C3-O4=1.4165         C3-C23=1.5291        C3-H28=1.1110        O4-C3=1.4165         O4-C5=1.4138         
C5-O4=1.4138         C5-C6=1.5450         C5-C8=1.5435         C5-H29=1.1038        C6-C5=1.5450         C6-O7=1.4090         
C6-H30=1.0964        C6-H31=1.0894        O7-C6=1.4090         O7-H32=0.9642        C8-C5=1.5435         C8-O9=1.4258         
C8-C21=1.5467        C8-H33=1.0956        O9-C8=1.4258         O9-C10=1.4053        C10-O9=1.4053        C10-O11=1.3928       
C10-C19=1.5334       C10-H34=1.1074       O11-C10=1.3928       O11-C12=1.4290       C12-O11=1.4290       C12-C13=1.5333       
C12-C15=1.5339       C12-H35=1.0980       C13-C12=1.5333       C13-O14=1.4067       C13-H36=1.0965       C13-H37=1.0927       
O14-C13=1.4067       O14-H38=0.9697       C15-C12=1.5339       C15-O16=1.4068       C15-C17=1.5328       C15-H39=1.1038       
O16-C15=1.4068       O16-H40=0.9711       C17-C15=1.5328       C17-O18=1.4065       C17-C19=1.5261       C17-H41=1.1014       
O18-C17=1.4065       O18-H42=0.9653       C19-C10=1.5334       C19-C17=1.5261       C19-O20=1.3990       C19-H43=1.1037       
O20-C19=1.3990       O20-H44=0.9664       C21-C8=1.5467        C21-O22=1.4057       C21-C23=1.5274       C21-H45=1.1030       
O22-C21=1.4057       O22-H46=0.9663       C23-C3=1.5291        C23-C21=1.5274       C23-O24=1.3990       C23-H47=1.0992       
O24-C23=1.3990       O24-H48=0.9664       H25-C1=1.0932        H26-C1=1.0960        H27-C1=1.0871        H28-C3=1.1110        
H29-C5=1.1038        H30-C6=1.0964        H31-C6=1.0894        H32-O7=0.9642        H33-C8=1.0956        H34-C10=1.1074       
H35-C12=1.0980       H36-C13=1.0965       H37-C13=1.0927       H38-O14=0.9697       H39-C15=1.1038       H40-O16=0.9711       
H41-C17=1.1014       H42-O18=0.9653       H43-C19=1.1037       H44-O20=0.9664       H45-C21=1.1030       H46-O22=0.9663       
H47-C23=1.0992       H48-O24=0.9664       
 C  H  Rav=1.0987 sigma=0.0061  Rmin=1.0871  Rmax=1.1110    17
 C  C  Rav=1.5351 sigma=0.0070  Rmin=1.5261  Rmax=1.5467    10
 O  H  Rav=0.9671 sigma=0.0023  Rmin=0.9642  Rmax=0.9711     7
 O  C  Rav=1.4071 sigma=0.0123  Rmin=1.3766  Rmax=1.4290    15

 selected bond angles (degree)
 --------------------
H25-C1-O2=111.10               H26-C1-O2=110.76               H26-C1-H25=109.40              H27-C1-O2=105.89               
H27-C1-H25=109.88              H27-C1-H26=109.76              C3-O2-C1=114.46                O4-C3-O2=107.78                
C23-C3-O2=108.97               C23-C3-O4=110.45               H28-C3-O2=111.25               H28-C3-O4=109.48               
H28-C3-C23=108.90              C5-O4-C3=118.78                C6-C5-O4=102.65                C8-C5-O4=110.87                
C8-C5-C6=114.78                H29-C5-O4=110.43               H29-C5-C6=110.34               H29-C5-C8=107.73               
O7-C6-C5=114.68                H30-C6-C5=106.47               H30-C6-O7=110.46               H31-C6-C5=110.02               
H31-C6-O7=106.79               H31-C6-H30=108.31              H32-O7-C6=108.88               O9-C8-C5=115.17                
C21-C8-C5=108.71               C21-C8-O9=102.45               H33-C8-C5=109.89               H33-C8-O9=110.45               
H33-C8-C21=109.86              C10-O9-C8=117.82               O11-C10-O9=114.28              C19-C10-O9=108.87              
C19-C10-O11=114.16             H34-C10-O9=108.44              H34-C10-O11=102.90             H34-C10-C19=107.72             

 selected dihedral angles (degree)
 ---------------------------------
C3-O2-C1-H25= 63.03           C3-O2-C1-H26=301.22           C3-O2-C1-H27=182.29           O4-C3-O2-C1=289.07            
C23-C3-O2-C1=169.18           H28-C3-O2-C1= 49.10           C5-O4-C3-O2=182.81            C5-O4-C3-C23=301.75           
C5-O4-C3-H28= 61.66           C6-C5-O4-C3=178.50            C8-C5-O4-C3= 55.46            H29-C5-O4-C3=296.13           
O7-C6-C5-O4=128.75            O7-C6-C5-C8=249.13            O7-C6-C5-H29= 11.06           H30-C6-C5-O4=  6.28           
H30-C6-C5-C8=126.66           H30-C6-C5-H29=248.58          H31-C6-C5-O4=249.13           H31-C6-C5-C8=  9.51           
H31-C6-C5-H29=131.44          H32-O7-C6-C5=297.82           H32-O7-C6-H30= 58.11          H32-O7-C6-H31=175.67          
O9-C8-C5-O4=196.64            O9-C8-C5-C6= 80.90            O9-C8-C5-H29=317.57           C21-C8-C5-O4=310.89           
C21-C8-C5-C6=195.15           C21-C8-C5-H29= 71.82          H33-C8-C5-O4= 71.15           H33-C8-C5-C6=315.42           
H33-C8-C5-H29=192.09          C10-O9-C8-C5=240.40           C10-O9-C8-C21=122.57          C10-O9-C8-H33=  5.60          
O11-C10-O9-C8= 53.44          C19-C10-O9-C8=182.39          H34-C10-O9-C8=299.33          
           -------------------------------------------------
          |                Final Singlepoint                |
           -------------------------------------------------

          ...................................................
          :                      SETUP                      :
          :.................................................:
          :  # basis functions                 120          :
          :  # atomic orbitals                 120          :
          :  # shells                           72          :
          :  # electrons                       142          :
          :  max. iterations                   250          :
          :  Hamiltonian                  GFN2-xTB          :
          :  restarted?                      false          :
          :  GBSA solvation                  false          :
          :  PC potential                    false          :
          :  electronic temp.          300.0000000     K    :
          :  accuracy                    1.0000000          :
          :  -> integral cutoff          0.2500000E+02      :
          :  -> integral neglect         0.1000000E-07      :
          :  -> SCF convergence          0.1000000E-05 Eh   :
          :  -> wf. convergence          0.1000000E-03 e    :
          :  Broyden damping             0.4000000          :
          :  net charge                          0          :
          :  unpaired electrons                  0          :
          ...................................................

 iter      E             dE          RMSdq      gap      omega  full diag
   1    -85.4288140 -0.854288E+02  0.501E-06    9.44       0.0  T
   2    -85.4288140 -0.184741E-12  0.298E-06    9.44    4844.7  T
   3    -85.4288140 -0.554223E-12  0.139E-06    9.44   10347.1  T

   *** convergence criteria satisfied after 3 iterations ***

         #    Occupation            Energy/Eh            Energy/eV
      -------------------------------------------------------------
         1        2.0000           -0.7382369             -20.0884
       ...           ...                  ...                  ...
        65        2.0000           -0.4260598             -11.5937
        66        2.0000           -0.4242989             -11.5458
        67        2.0000           -0.4216629             -11.4740
        68        2.0000           -0.4198838             -11.4256
        69        2.0000           -0.4194958             -11.4151
        70        2.0000           -0.4175839             -11.3630
        71        2.0000           -0.4086811             -11.1208 (HOMO)
        72                         -0.0618753              -1.6837 (LUMO)
        73                         -0.0348716              -0.9489
        74                         -0.0133604              -0.3636
        75                         -0.0063529              -0.1729
        76                         -0.0006339              -0.0172
       ...                                ...                  ...
       120                          0.3057848               8.3208
      -------------------------------------------------------------
                  HL-Gap            0.3468058 Eh            9.4371 eV
             Fermi-level           -0.2352782 Eh           -6.4022 eV

 SCC (total)                   0 d,  0 h,  0 min,  0.102 sec
 SCC setup                      ...        0 min,  0.000 sec (  0.403%)
 Dispersion                     ...        0 min,  0.001 sec (  0.792%)
 classical contributions        ...        0 min,  0.000 sec (  0.254%)
 integral evaluation            ...        0 min,  0.018 sec ( 17.544%)
 iterations                     ...        0 min,  0.022 sec ( 21.493%)
 molecular gradient             ...        0 min,  0.060 sec ( 58.641%)
 printout                       ...        0 min,  0.001 sec (  0.847%)

         :::::::::::::::::::::::::::::::::::::::::::::::::::::
         ::                     SUMMARY                     ::
         :::::::::::::::::::::::::::::::::::::::::::::::::::::
         :: total energy             -84.808832959927 Eh    ::
         :: gradient norm              0.000343514559 Eh/a0 ::
         :: HOMO-LUMO gap              9.437067334956 eV    ::
         ::.................................................::
         :: SCC energy               -85.427969453768 Eh    ::
         :: -> isotropic ES            0.236020660137 Eh    ::
         :: -> anisotropic ES         -0.013130210487 Eh    ::
         :: -> anisotropic XC         -0.017275240232 Eh    ::
         :: -> dispersion             -0.047679398504 Eh    ::
         :: repulsion energy           0.618221452590 Eh    ::
         :: add. restraining           0.000915041252 Eh    ::
         :: total charge              -0.000000000000 e     ::
         :::::::::::::::::::::::::::::::::::::::::::::::::::::

========================================================================
 RELAXED SCAN
------------------------------------------------------------------------
 output written to xtbscan.log
 scaning constraint 2
... step 1 ...
      ----------------------------------------------------------- 
     |                   =====================                   |
     |                        A N C O P T                        |
     |                   =====================                   |
     |               Approximate Normal Coordinate               |
     |                Rational Function Optimizer                |
      ----------------------------------------------------------- 
 current energy:         -84.80883296
    bias energy:           0.00091504
unbiased energy:         -84.80974800
... step 2 ...
      ----------------------------------------------------------- 
     |                   =====================                   |
     |                        A N C O P T                        |
     |                   =====================                   |
     |               Approximate Normal Coordinate               |
     |                Rational Function Optimizer                |
      ----------------------------------------------------------- 
 current energy:         -84.80938907
    bias energy:           0.00093074
unbiased energy:         -84.81031982
... step 3 ...
      ----------------------------------------------------------- 
     |                   =====================                   |
     |                        A N C O P T                        |
     |                   =====================                   |
     |               Approximate Normal Coordinate               |
     |                Rational Function Optimizer                |
      ----------------------------------------------------------- 
 current energy:         -84.80996573
    bias energy:           0.00073041
unbiased energy:         -84.81069614
... step 4 ...
      ----------------------------------------------------------- 
     |                   =====================                   |
     |                        A N C O P T                        |
     |                   =====================                   |
     |               Approximate Normal Coordinate               |
     |                Rational Function Optimizer                |
      ----------------------------------------------------------- 
 current energy:         -84.80996565
    bias energy:           0.00054296
unbiased energy:         -84.81050860
... step 5 ...
      ----------------------------------------------------------- 
     |                   =====================                   |
     |                        A N C O P T                        |
     |                   =====================                   |
     |               Approximate Normal Coordinate               |
     |                Rational Function Optimizer                |
      ----------------------------------------------------------- 
 current energy:         -84.80909282
    bias energy:           0.00038406
unbiased energy:         -84.80947688
... step 6 ...
      ----------------------------------------------------------- 
     |                   =====================                   |
     |                        A N C O P T                        |
     |                   =====================                   |
     |               Approximate Normal Coordinate               |
     |                Rational Function Optimizer                |
      ----------------------------------------------------------- 
 current energy:         -84.80782542
    bias energy:           0.00042060
unbiased energy:         -84.80824602
... step 7 ...
      ----------------------------------------------------------- 
     |                   =====================                   |
     |                        A N C O P T                        |
     |                   =====================                   |
     |               Approximate Normal Coordinate               |
     |                Rational Function Optimizer                |
      ----------------------------------------------------------- 
 current energy:         -84.80697711
    bias energy:           0.00046200
unbiased energy:         -84.80743911
... step 8 ...
      ----------------------------------------------------------- 
     |                   =====================                   |
     |                        A N C O P T                        |
     |                   =====================                   |
     |               Approximate Normal Coordinate               |
     |                Rational Function Optimizer                |
      ----------------------------------------------------------- 
 current energy:         -84.80664365
    bias energy:           0.00046376
unbiased energy:         -84.80710740
... step 9 ...
      ----------------------------------------------------------- 
     |                   =====================                   |
     |                        A N C O P T                        |
     |                   =====================                   |
     |               Approximate Normal Coordinate               |
     |                Rational Function Optimizer                |
      ----------------------------------------------------------- 
 current energy:         -84.80665495
    bias energy:           0.00034833
unbiased energy:         -84.80700328
... step 10 ...
      ----------------------------------------------------------- 
     |                   =====================                   |
     |                        A N C O P T                        |
     |                   =====================                   |
     |               Approximate Normal Coordinate               |
     |                Rational Function Optimizer                |
      ----------------------------------------------------------- 
 current energy:         -84.80635192
    bias energy:           0.00014886
unbiased energy:         -84.80650078
... step 11 ...
      ----------------------------------------------------------- 
     |                   =====================                   |
     |                        A N C O P T                        |
     |                   =====================                   |
     |               Approximate Normal Coordinate               |
     |                Rational Function Optimizer                |
      ----------------------------------------------------------- 
 current energy:         -84.80514483
    bias energy:           0.00010972
unbiased energy:         -84.80525455
... step 12 ...
      ----------------------------------------------------------- 
     |                   =====================                   |
     |                        A N C O P T                        |
     |                   =====================                   |
     |               Approximate Normal Coordinate               |
     |                Rational Function Optimizer                |
      ----------------------------------------------------------- 
 current energy:         -84.80350499
    bias energy:           0.00007626
unbiased energy:         -84.80358124
... step 13 ...
      ----------------------------------------------------------- 
     |                   =====================                   |
     |                        A N C O P T                        |
     |                   =====================                   |
     |               Approximate Normal Coordinate               |
     |                Rational Function Optimizer                |
      ----------------------------------------------------------- 
 current energy:         -84.80195341
    bias energy:           0.00008410
unbiased energy:         -84.80203751
... step 14 ...
      ----------------------------------------------------------- 
     |                   =====================                   |
     |                        A N C O P T                        |
     |                   =====================                   |
     |               Approximate Normal Coordinate               |
     |                Rational Function Optimizer                |
      ----------------------------------------------------------- 
 current energy:         -84.80093667
    bias energy:           0.00002900
unbiased energy:         -84.80096568
... step 15 ...
      ----------------------------------------------------------- 
     |                   =====================                   |
     |                        A N C O P T                        |
     |                   =====================                   |
     |               Approximate Normal Coordinate               |
     |                Rational Function Optimizer                |
      ----------------------------------------------------------- 
 current energy:         -84.80174359
    bias energy:           0.00024760
unbiased energy:         -84.80199119
... step 16 ...
      ----------------------------------------------------------- 
     |                   =====================                   |
     |                        A N C O P T                        |
     |                   =====================                   |
     |               Approximate Normal Coordinate               |
     |                Rational Function Optimizer                |
      ----------------------------------------------------------- 
 current energy:         -84.80326760
    bias energy:           0.00029218
unbiased energy:         -84.80355977
... step 17 ...
      ----------------------------------------------------------- 
     |                   =====================                   |
     |                        A N C O P T                        |
     |                   =====================                   |
     |               Approximate Normal Coordinate               |
     |                Rational Function Optimizer                |
      ----------------------------------------------------------- 
 current energy:         -84.80441249
    bias energy:           0.00021775
unbiased energy:         -84.80463024
... step 18 ...
      ----------------------------------------------------------- 
     |                   =====================                   |
     |                        A N C O P T                        |
     |                   =====================                   |
     |               Approximate Normal Coordinate               |
     |                Rational Function Optimizer                |
      ----------------------------------------------------------- 
 current energy:         -84.80592838
    bias energy:           0.00019883
unbiased energy:         -84.80612721
... step 19 ...
      ----------------------------------------------------------- 
     |                   =====================                   |
     |                        A N C O P T                        |
     |                   =====================                   |
     |               Approximate Normal Coordinate               |
     |                Rational Function Optimizer                |
      ----------------------------------------------------------- 
 current energy:         -84.80559102
    bias energy:           0.00020114
unbiased energy:         -84.80579217
... step 20 ...
      ----------------------------------------------------------- 
     |                   =====================                   |
     |                        A N C O P T                        |
     |                   =====================                   |
     |               Approximate Normal Coordinate               |
     |                Rational Function Optimizer                |
      ----------------------------------------------------------- 
 current energy:         -84.80421929
    bias energy:           0.00028967
unbiased energy:         -84.80450896
... step 21 ...
      ----------------------------------------------------------- 
     |                   =====================                   |
     |                        A N C O P T                        |
     |                   =====================                   |
     |               Approximate Normal Coordinate               |
     |                Rational Function Optimizer                |
      ----------------------------------------------------------- 
 current energy:         -84.80219333
    bias energy:           0.00038615
unbiased energy:         -84.80257949
... step 22 ...
      ----------------------------------------------------------- 
     |                   =====================                   |
     |                        A N C O P T                        |
     |                   =====================                   |
     |               Approximate Normal Coordinate               |
     |                Rational Function Optimizer                |
      ----------------------------------------------------------- 
 current energy:         -84.80557059
    bias energy:           0.00047519
unbiased energy:         -84.80604578
... step 23 ...
      ----------------------------------------------------------- 
     |                   =====================                   |
     |                        A N C O P T                        |
     |                   =====================                   |
     |               Approximate Normal Coordinate               |
     |                Rational Function Optimizer                |
      ----------------------------------------------------------- 
 current energy:         -84.80372570
    bias energy:           0.00044442
unbiased energy:         -84.80417013
... step 24 ...
      ----------------------------------------------------------- 
     |                   =====================                   |
     |                        A N C O P T                        |
     |                   =====================                   |
     |               Approximate Normal Coordinate               |
     |                Rational Function Optimizer                |
      ----------------------------------------------------------- 
 current energy:         -84.80215384
    bias energy:           0.00033207
unbiased energy:         -84.80248591
... step 25 ...
      ----------------------------------------------------------- 
     |                   =====================                   |
     |                        A N C O P T                        |
     |                   =====================                   |
     |               Approximate Normal Coordinate               |
     |                Rational Function Optimizer                |
      ----------------------------------------------------------- 
 current energy:         -84.80078161
    bias energy:           0.00020857
unbiased energy:         -84.80099018
... step 26 ...
      ----------------------------------------------------------- 
     |                   =====================                   |
     |                        A N C O P T                        |
     |                   =====================                   |
     |               Approximate Normal Coordinate               |
     |                Rational Function Optimizer                |
      ----------------------------------------------------------- 
 current energy:         -84.79966634
    bias energy:           0.00011587
unbiased energy:         -84.79978221
... step 27 ...
      ----------------------------------------------------------- 
     |                   =====================                   |
     |                        A N C O P T                        |
     |                   =====================                   |
     |               Approximate Normal Coordinate               |
     |                Rational Function Optimizer                |
      ----------------------------------------------------------- 
 current energy:         -84.80851210
    bias energy:           0.00021039
unbiased energy:         -84.80872249
... step 28 ...
      ----------------------------------------------------------- 
     |                   =====================                   |
     |                        A N C O P T                        |
     |                   =====================                   |
     |               Approximate Normal Coordinate               |
     |                Rational Function Optimizer                |
      ----------------------------------------------------------- 
 current energy:         -84.80953943
    bias energy:           0.00013309
unbiased energy:         -84.80967253
... step 29 ...
      ----------------------------------------------------------- 
     |                   =====================                   |
     |                        A N C O P T                        |
     |                   =====================                   |
     |               Approximate Normal Coordinate               |
     |                Rational Function Optimizer                |
      ----------------------------------------------------------- 
 current energy:         -84.81017984
    bias energy:           0.00004370
unbiased energy:         -84.81022354
... step 30 ...
      ----------------------------------------------------------- 
     |                   =====================                   |
     |                        A N C O P T                        |
     |                   =====================                   |
     |               Approximate Normal Coordinate               |
     |                Rational Function Optimizer                |
      ----------------------------------------------------------- 
 current energy:         -84.81025860
    bias energy:           0.00001202
unbiased energy:         -84.81027062
... step 31 ...
      ----------------------------------------------------------- 
     |                   =====================                   |
     |                        A N C O P T                        |
     |                   =====================                   |
     |               Approximate Normal Coordinate               |
     |                Rational Function Optimizer                |
      ----------------------------------------------------------- 
 current energy:         -84.80976508
    bias energy:           0.00001553
unbiased energy:         -84.80978061
... step 32 ...
      ----------------------------------------------------------- 
     |                   =====================                   |
     |                        A N C O P T                        |
     |                   =====================                   |
     |               Approximate Normal Coordinate               |
     |                Rational Function Optimizer                |
      ----------------------------------------------------------- 
 current energy:         -84.81112782
    bias energy:           0.00007932
unbiased energy:         -84.81120714
... step 33 ...
      ----------------------------------------------------------- 
     |                   =====================                   |
     |                        A N C O P T                        |
     |                   =====================                   |
     |               Approximate Normal Coordinate               |
     |                Rational Function Optimizer                |
      ----------------------------------------------------------- 
 current energy:         -84.81101335
    bias energy:           0.00007618
unbiased energy:         -84.81108953
... step 34 ...
      ----------------------------------------------------------- 
     |                   =====================                   |
     |                        A N C O P T                        |
     |                   =====================                   |
     |               Approximate Normal Coordinate               |
     |                Rational Function Optimizer                |
      ----------------------------------------------------------- 
 current energy:         -84.80978237
    bias energy:           0.00016026
unbiased energy:         -84.80994264
... step 35 ...
      ----------------------------------------------------------- 
     |                   =====================                   |
     |                        A N C O P T                        |
     |                   =====================                   |
     |               Approximate Normal Coordinate               |
     |                Rational Function Optimizer                |
      ----------------------------------------------------------- 
 current energy:         -84.80737168
    bias energy:           0.00032653
unbiased energy:         -84.80769821
... step 36 ...
      ----------------------------------------------------------- 
     |                   =====================                   |
     |                        A N C O P T                        |
     |                   =====================                   |
     |               Approximate Normal Coordinate               |
     |                Rational Function Optimizer                |
      ----------------------------------------------------------- 
 current energy:         -84.80421212
    bias energy:           0.00046025
unbiased energy:         -84.80467237
           -------------------------------------------------
          |                Property Printout                |
           -------------------------------------------------

    * Orbital Energies and Occupations

         #    Occupation            Energy/Eh            Energy/eV
      -------------------------------------------------------------
         1        2.0000           -0.7399607             -20.1354
       ...           ...                  ...                  ...
        59        2.0000           -0.4676329             -12.7249
        60        2.0000           -0.4603684             -12.5273
        61        2.0000           -0.4590217             -12.4906
        62        2.0000           -0.4528607             -12.3230
        63        2.0000           -0.4441942             -12.0871
        64        2.0000           -0.4332696             -11.7899
        65        2.0000           -0.4300345             -11.7018
        66        2.0000           -0.4286760             -11.6649
        67        2.0000           -0.4261258             -11.5955
        68        2.0000           -0.4243716             -11.5477
        69        2.0000           -0.4231469             -11.5144
        70        2.0000           -0.4178749             -11.3710
        71        2.0000           -0.4075429             -11.0898 (HOMO)
        72                         -0.0556499              -1.5143 (LUMO)
        73                         -0.0446225              -1.2142
        74                         -0.0182789              -0.4974
        75                         -0.0052641              -0.1432
        76                          0.0034113               0.0928
        77                          0.0050382               0.1371
        78                          0.0124015               0.3375
        79                          0.0303644               0.8263
        80                          0.0346812               0.9437
        81                          0.0427351               1.1629
        82                          0.0521182               1.4182
       ...                                ...                  ...
       120                          0.2938363               7.9957
      -------------------------------------------------------------
                  HL-Gap            0.3518930 Eh            9.5755 eV
             Fermi-level           -0.2315964 Eh           -6.3021 eV

     #   Z          covCN         q      C6AA      α(0)
     1   6 C        3.654     0.033    20.326     6.474
     2   8 O        1.703    -0.286    18.757     5.847
     3   6 C        3.655     0.248    17.027     5.924
     4   8 O        1.701    -0.347    19.832     6.013
     5   6 C        3.747     0.094    19.094     6.233
     6   6 C        3.676     0.082    19.440     6.317
     7   8 O        1.656    -0.430    21.430     6.249
     8   6 C        3.739     0.090    19.161     6.246
     9   8 O        1.701    -0.316    19.268     5.927
    10   6 C        3.631     0.240    17.231     5.977
    11   8 O        1.701    -0.347    19.833     6.013
    12   6 C        3.737     0.082    19.297     6.269
    13   6 C        3.675     0.068    19.663     6.354
    14   8 O        1.655    -0.434    21.523     6.263
    15   6 C        3.731     0.092    19.144     6.246
    16   8 O        1.656    -0.456    21.975     6.328
    17   6 C        3.732     0.100    19.014     6.224
    18   8 O        1.656    -0.445    21.744     6.295
    19   6 C        3.731     0.100    19.013     6.224
    20   8 O        1.657    -0.422    21.279     6.227
    21   6 C        3.728     0.085    19.270     6.267
    22   8 O        1.656    -0.432    21.486     6.257
    23   6 C        3.725     0.090    19.193     6.255
    24   8 O        1.657    -0.434    21.512     6.261
    25   1 H        0.924     0.045     2.383     2.414
    26   1 H        0.924     0.043     2.408     2.427
    27   1 H        0.925     0.075     2.034     2.230
    28   1 H        0.922     0.012     2.859     2.644
    29   1 H        0.923     0.041     2.438     2.442
    30   1 H        0.923     0.031     2.578     2.511
    31   1 H        0.924     0.060     2.201     2.320
    32   1 H        0.805     0.310     0.692     1.306
    33   1 H        0.923     0.037     2.492     2.469
    34   1 H        0.923     0.052     2.301     2.372
    35   1 H        0.923     0.039     2.469     2.457
    36   1 H        0.924     0.046     2.375     2.410
    37   1 H        0.924     0.068     2.103     2.268
    38   1 H        0.805     0.303     0.711     1.325
    39   1 H        0.923     0.029     2.601     2.522
    40   1 H        0.804     0.321     0.661     1.277
    41   1 H        0.923     0.039     2.463     2.454
    42   1 H        0.805     0.318     0.668     1.284
    43   1 H        0.922     0.032     2.564     2.504
    44   1 H        0.805     0.326     0.647     1.264
    45   1 H        0.924     0.074     2.042     2.235
    46   1 H        0.805     0.293     0.742     1.353
    47   1 H        0.923     0.035     2.516     2.481
    48   1 H        0.805     0.318     0.670     1.286

 Mol. C6AA /au·bohr⁶  :      19187.992859
 Mol. C8AA /au·bohr⁸  :     409655.869543
 Mol. α(0) /au        :        198.943541


Wiberg/Mayer (AO) data.
largest (>0.10) Wiberg bond orders for each atom

 ---------------------------------------------------------------------------
     #   Z sym  total        # sym  WBO       # sym  WBO       # sym  WBO
 ---------------------------------------------------------------------------
     1   6 C    3.937 --    25 H    0.980    27 H    0.979    26 H    0.977
                             2 O    0.975
     2   8 O    2.113 --     3 C    1.020     1 C    0.975
     3   6 C    3.934 --     2 O    1.020    23 C    0.959     4 O    0.944
                            28 H    0.942
     4   8 O    2.072 --     5 C    0.969     3 C    0.944
     5   6 C    3.945 --     6 C    0.977     4 O    0.969     8 C    0.963
                            29 H    0.956
     6   6 C    3.966 --     7 O    1.017     5 C    0.977    30 H    0.964
                            31 H    0.963
     7   8 O    1.965 --     6 C    1.017    32 H    0.882
     8   6 C    3.951 --     9 O    0.969    21 C    0.964     5 C    0.963
                            33 H    0.956
     9   8 O    2.096 --    10 C    0.976     8 C    0.969
    10   6 C    3.924 --    11 O    0.977     9 O    0.976    19 C    0.956
                            34 H    0.944
    11   8 O    2.086 --    10 C    0.977    12 C    0.959
    12   6 C    3.944 --    13 C    0.976    15 C    0.965    11 O    0.959
                            35 H    0.947
    13   6 C    3.952 --    14 O    1.004    12 C    0.976    36 H    0.969
                            37 H    0.969
    14   8 O    1.987 --    13 C    1.004    38 H    0.894
    15   6 C    3.963 --    16 O    1.002    17 C    0.970    12 C    0.965
                            39 H    0.955
    16   8 O    1.951 --    15 C    1.002    40 H    0.860
    17   6 C    3.963 --    18 O    0.998    19 C    0.971    15 C    0.970
                            41 H    0.955
    18   8 O    1.957 --    17 C    0.998    42 H    0.879
    19   6 C    3.970 --    20 O    1.017    17 C    0.971    10 C    0.956
                            43 H    0.953
    20   8 O    1.967 --    19 C    1.017    44 H    0.874
    21   6 C    3.956 --    22 O    0.999     8 C    0.964    23 C    0.962
                            45 H    0.956
    22   8 O    1.980 --    21 C    0.999    46 H    0.894
    23   6 C    3.965 --    24 O    1.008    21 C    0.962     3 C    0.959
                            47 H    0.953
    24   8 O    1.961 --    23 C    1.008    48 H    0.879
    25   1 H    0.998 --     1 C    0.980
    26   1 H    0.998 --     1 C    0.977
    27   1 H    0.994 --     1 C    0.979
    28   1 H    1.000 --     3 C    0.942
    29   1 H    0.998 --     5 C    0.956
    30   1 H    0.999 --     6 C    0.964
    31   1 H    0.996 --     6 C    0.963
    32   1 H    0.904 --     7 O    0.882
    33   1 H    0.999 --     8 C    0.956
    34   1 H    0.997 --    10 C    0.944
    35   1 H    0.999 --    12 C    0.947
    36   1 H    0.997 --    13 C    0.969
    37   1 H    0.995 --    13 C    0.969
    38   1 H    0.908 --    14 O    0.894
    39   1 H    0.999 --    15 C    0.955
    40   1 H    0.896 --    16 O    0.860
    41   1 H    0.998 --    17 C    0.955
    42   1 H    0.899 --    18 O    0.879
    43   1 H    0.999 --    19 C    0.953
    44   1 H    0.894 --    20 O    0.874
    45   1 H    0.995 --    21 C    0.956
    46   1 H    0.914 --    22 O    0.894
    47   1 H    0.999 --    23 C    0.953
    48   1 H    0.899 --    24 O    0.879
 ---------------------------------------------------------------------------

Topologies differ in total number of bonds
Writing topology from bond orders to xtbtopo.mol

molecular dipole:
                 x           y           z       tot (Debye)
 q only:        0.007       0.108      -0.953
   full:       -0.029       0.315      -1.322       3.454
molecular quadrupole (traceless):
                xx          xy          yy          xz          yz          zz
 q only:        3.205      -4.228       0.604      -0.157      -1.546      -3.809
  q+dip:       -0.212      -7.032       6.397      -0.150      -6.897      -6.185
   full:        0.244      -6.470       5.451      -0.270      -4.949      -5.695

           -------------------------------------------------
          |                Geometry Summary                 |
           -------------------------------------------------

      molecular mass/u    :      356.3235988
   center of mass at/Å    :       -0.0988060       0.0244020       0.2302484
  moments of inertia/u·Å² :        0.1357615E+04   0.3678884E+04   0.4369157E+04
rotational constants/cm⁻¹ :        0.1241710E-01   0.4582268E-02   0.3858326E-02

 * 49 selected distances

     #   Z          #   Z                                           value/Å
     1   6 C        2   8 O                                       1.4143268
     2   8 O        3   6 C                                       1.3772240
     3   6 C        4   8 O                                       1.4154780
     4   8 O        5   6 C                                       1.4142111
     5   6 C        6   6 C                                       1.5296975
     6   6 C        7   8 O                                       1.3982928
     5   6 C        8   6 C                                       1.5392141
     8   6 C        9   8 O                                       1.4180686
     9   8 O       10   6 C                                       1.4034791
    10   6 C       11   8 O                                       1.4007223
    11   8 O       12   6 C                                       1.4224946
    12   6 C       13   6 C                                       1.5375332
    13   6 C       14   8 O                                       1.4074377
    12   6 C       15   6 C                                       1.5359646
    15   6 C       16   8 O                                       1.4060298
    15   6 C       17   6 C                                       1.5305000
    17   6 C       18   8 O                                       1.4058700
    10   6 C       19   6 C                                       1.5372219
    17   6 C       19   6 C                                       1.5282942
    19   6 C       20   8 O                                       1.3934128
     8   6 C       21   6 C                                       1.5374670
    21   6 C       22   8 O                                       1.4072417
     3   6 C       23   6 C                                       1.5320973
    21   6 C       23   6 C                                       1.5395653 (max)
    23   6 C       24   8 O                                       1.4003231
     1   6 C       25   1 H                                       1.0935895
     1   6 C       26   1 H                                       1.0953013
     1   6 C       27   1 H                                       1.0872851
     3   6 C       28   1 H                                       1.1097651
     5   6 C       29   1 H                                       1.1026530
     6   6 C       30   1 H                                       1.1005126
     6   6 C       31   1 H                                       1.0907235
     7   8 O       32   1 H                                       0.9661638
     8   6 C       33   1 H                                       1.1015313
    10   6 C       34   1 H                                       1.1046063
    12   6 C       35   1 H                                       1.0980994
    13   6 C       36   1 H                                       1.0956009
    13   6 C       37   1 H                                       1.0920223
    14   8 O       38   1 H                                       0.9649415 (min)
    15   6 C       39   1 H                                       1.1029918
    16   8 O       40   1 H                                       0.9703240
    17   6 C       41   1 H                                       1.1009821
    18   8 O       42   1 H                                       0.9653186
    19   6 C       43   1 H                                       1.1050324
    20   8 O       44   1 H                                       0.9669562
    21   6 C       45   1 H                                       1.0954977
    22   8 O       46   1 H                                       0.9656123
    23   6 C       47   1 H                                       1.1040348
Note: The following floating-point exceptions are signalling: IEEE_UNDERFLOW_FLAG IEEE_DENORMAL
normal termination of xtb
    24   8 O       48   1 H                                       0.9675958

 * 4 distinct bonds (by element types)

   Z      Z             #   av. dist./Å        max./Å        min./Å
   1 H    6 C          17     1.0988370     1.1097651     1.0872851
   6 C    6 C          10     1.5347555     1.5395653     1.5282942
   1 H    8 O           7     0.9667018     0.9703240     0.9649415
   6 C    8 O          15     1.4056408     1.4224946     1.3772240


optimized geometry written to: xtbopt.xyz


           -------------------------------------------------
          | TOTAL ENERGY              -84.808832959927 Eh   |
          | GRADIENT NORM               0.000343514559 Eh/α |
          | HOMO-LUMO GAP               9.575496899753 eV   |
           -------------------------------------------------

------------------------------------------------------------------------
 * finished run on 2026/09/22 at 13:27:43.088     
------------------------------------------------------------------------
 total:
 * wall-time:     0 d,  0 h,  2 min, 21.740 sec
 *  cpu-time:     0 d,  0 h,  2 min, 20.242 sec
 * ratio c/w:     0.989 speedup
 SCF:
 * wall-time:     0 d,  0 h,  0 min,  0.140 sec
 *  cpu-time:     0 d,  0 h,  0 min,  0.139 sec
 * ratio c/w:     0.994 speedup
 ANC optimizer:
 * wall-time:     0 d,  0 h,  2 min, 21.544 sec
 *  cpu-time:     0 d,  0 h,  2 min, 20.050 sec
 * ratio c/w:     0.989 speedup

