48
 energy: -84.808832959927 gnorm: 0.000343514559 xtb: 6.7.1 (edcfbbe)
C            5.65799069673137       -0.40625985122910        0.26323141133828
O            4.78059389690615        0.63565026080571        0.64391255743306
C            3.54674088499147        0.21396498166984        1.08723393829365
O            2.79104822696953       -0.21526090362818       -0.03002666891908
C            1.49187893848755       -0.67355572439861        0.28953208870539
C            0.94964341284238       -1.29134092411950       -1.00054394831368
O            1.83673126799409       -2.23867203494883       -1.52098729793938
C            0.65458273428961        0.48687802615374        0.85654911725971
O           -0.64074191411261        0.05373194770783        1.23791075206247
C           -1.72209191183857        0.83419977570841        0.80052619311916
O           -1.74219865293105        1.12489346632239       -0.56955243065765
C           -2.20733008239718        0.11964577381314       -1.46208839159694
C           -2.38269564483216        0.80285042010138       -2.82828249362184
O           -2.67130574347089       -0.12407698493751       -3.84729692362543
C           -3.51375595495754       -0.54668047877934       -1.00552765297345
O           -3.82985259090072       -1.65577926419025       -1.80982994813234
C           -3.34343249635364       -1.03622489717392        0.43452994372297
O           -4.52015605332234       -1.62852078771095        0.92542422973871
C           -3.01922560376513        0.17937467411093        1.30222237671591
O           -2.88785754410052       -0.14637114772791        2.65064037070244
C            1.37565606593095        1.08789519569736        2.07418456723698
O            0.75045144000015        2.25400387697517        2.55339060289206
C            2.85575586179331        1.39290854087357        1.78002061600907
O            3.53255752631612        1.66634955327993        2.97504112469705
H            5.27610318412731       -0.95049024918708       -0.60505015761201
H            5.81155799605994       -1.10675868802483        1.09112215550879
H            6.59913055201268        0.07575729392788        0.01004370923481
H            3.63850630272056       -0.62393591212860        1.80909229438240
H            1.55964104383731       -1.45820772255974        1.06126583675196
H            0.77919811607462       -0.48466327281806       -1.72947969251684
H            0.02046002399075       -1.82077097602163       -0.78606863978106
H            2.71597164545806       -1.83857845518365       -1.50271467764132
H            0.56575971822812        1.25622921886394        0.07323556530842
H           -1.64298240454709        1.83279016564771        1.26605152224980
H           -1.46195265041950       -0.68092266792674       -1.55865325948061
H           -1.48016335563225        1.38220474883898       -3.05216916992038
H           -3.23112363711745        1.48926404109176       -2.78931227289369
H           -1.89129268481878       -0.66727572560448       -4.01350941757602
H           -4.33433565576062        0.18994964699690       -1.03034009633584
H           -3.81144884199490       -1.36610303074089       -2.73572273113487
H           -2.50899593925540       -1.75287927913492        0.48231536084116
H           -4.83096944594698       -2.24203246550312        0.24804817828010
H           -3.83317609314726        0.91441003016399        1.16693043593415
H           -3.56538158631503       -0.80857041631544        2.84417964096059
H            1.30882207458223        0.37309146940145        2.90165293447309
H            0.68663417350944        2.89801464914957        1.83674255302925
H            2.92158938558513        2.25414647261711        1.09239580581283
H            2.96545816749509        2.24572530834374        3.50321116521787
