48
 energy: -84.857994487916 gnorm: 0.000167501037 xtb: 6.7.1 (edcfbbe)
C            5.78313466139287       -0.80510985504646        0.28800473480705
O            4.91233811713342        0.29556180939954        0.53226732285685
C            3.60351054437351       -0.04919943942889        0.79935935796329
O            2.99289663837455       -0.46520405342022       -0.40735946753989
C            1.61392199915036       -0.76292495334395       -0.30448760274597
C            1.15799545939936       -1.23860249508853       -1.69152912980923
O            1.55389135227856       -2.55254753293964       -1.97150713171945
C            0.81851318474391        0.46701545598330        0.16034696380685
O           -0.53504595364526        0.07458172238755        0.32036607356793
C           -1.49314307510003        1.10896016846753        0.30498675483834
O           -2.12848171312604        1.20059671054230       -0.93743688425090
C           -2.86580328521069        0.03112042762521       -1.30193042515708
C           -3.56792798505229        0.33795921571400       -2.63080087812176
O           -2.66874262154167        0.49609864153885       -3.69493978652350
C           -3.88993357537556       -0.36094567878803       -0.22396436035948
O           -4.55932710482830       -1.55310584418932       -0.54123667484726
C           -3.21170602608971       -0.46209014913782        1.15272221104879
O           -4.14935587246333       -0.68981421689953        2.17706036359281
C           -2.49436216875096        0.85708804204665        1.43903527802412
O           -1.78052779656927        0.84622238425556        2.64644799760005
C            1.39676982862294        0.90994436558038        1.52117489564358
O            0.80263942594489        2.07980445060935        2.03360535353039
C            2.90178490621157        1.17841274214329        1.39204014925678
O            3.47164438348333        1.42672308582433        2.64704039354328
H            5.49101695800110       -1.33228277793982       -0.62119719894930
H            5.77211427146743       -1.49306273967178        1.13794604446296
H            6.77063219736062       -0.36890552504760        0.17043458691424
H            3.55214275016049       -0.87512278164217        1.53948990599825
H            1.45435123958723       -1.57065916615198        0.42621351085851
H            1.54816120492403       -0.53863870120855       -2.43870122359047
H            0.06813550603598       -1.23513183206491       -1.72359257926693
H            2.51943943152788       -2.58759618577243       -2.01632839396224
H            0.90665346213872        1.27663867348097       -0.57308316131076
H           -1.01426410110236        2.08502766001953        0.44054614156835
H           -2.15854848899378       -0.79972189915820       -1.44392100978380
H           -4.18156496704643        1.23664099063889       -2.49793797510375
H           -4.21317925785551       -0.50269231483962       -2.89192513485844
H           -2.12353130360566        1.27657677382375       -3.52437279606465
H           -4.67129627006743        0.40624018945357       -0.16938712249896
H           -3.91630353474151       -2.25993865991928       -0.70280325677388
H           -2.45969900691373       -1.26728620983840        1.13657387688632
H           -4.78697496626302       -1.35436285510441        1.87377661728604
H           -3.23544713784562        1.67052956570355        1.43941632211903
H           -2.36804869070860        0.51238398622037        3.34332407793587
H            1.25246838819549        0.07955496685499        2.22666177859083
H           -0.03458684565647        1.84416557061100        2.47028706381354
H            3.06704578520099        2.02632145259765        0.71213678184094
H            3.00202506276825        2.17785682973124        3.04489966868454
