48
 energy: -84.603933971909 gnorm: 0.000649167395 xtb: 6.7.1 (edcfbbe)
C            5.57362244003830       -1.11252217320468        0.37433480566836
O            4.91100492503374        0.05549347581003        0.85715144333071
C            3.53423403368107       -0.05957651746469        0.91480809577922
O            3.02353961391811       -0.24466621643267       -0.38056657552722
C            1.62374576926755       -0.49145841452759       -0.41239299704828
C            1.29517899009609       -0.82807330128608       -1.84769368807539
O            0.11176453185262       -1.85485595629832       -1.84042945803942
C            0.85161687750844        0.70759641503568        0.20199954392442
O           -0.48324279669935        0.24438404858372        0.35125039550011
C           -1.48540195860935        1.21834003657838        0.47868666560331
O           -2.14587304213608        1.42487367401463       -0.73579900597660
C           -2.70480180995881        0.23120618943055       -1.31371904729521
C           -3.34217576755473        0.43204085261080       -2.58887267988779
O           -5.53132761816735       -1.31618059849363       -2.99764899198954
C           -3.75585907782665       -0.42458257378530       -0.33198674271035
O           -4.13796782552765       -1.69516479196799       -0.72703933862275
C           -3.10995885270784       -0.57412936566372        1.05435258155352
O           -4.07161412801233       -0.97259893975983        1.99966493124927
C           -2.49738160792706        0.74167692174896        1.53344501300741
O           -1.84644608950910        0.59658237467643        2.76407054310707
C            1.42622204328563        1.15856757226457        1.55208728873131
O            0.90476093900117        2.43105672714321        1.86739282645193
C            2.96263308542878        1.22503187851421        1.52707840289525
O            3.46501221358027        1.50916441991764        2.80537502063298
H            5.25133163034545       -1.33555864364684       -0.64333050654522
H            5.36128162200959       -1.96314338521196        1.02879111009011
H            6.63172265245673       -0.87121049266850        0.39787346695112
H            3.24045531202046       -0.93483361337625        1.54302909296356
H            1.40883467471527       -1.35312752047460        0.24582613240379
H            0.85222776977055        0.04620788727456       -2.34232899847814
H           -0.01742194572395       -2.06031464730126       -2.79333720068099
H            0.46974596051826       -2.66988810047891       -1.42642457354755
H            0.88510096652662        1.56256161309231       -0.48849571778726
H           -1.06484911086405        2.18449954508406        0.77265923407244
H           -1.91106310302595       -0.52637813023971       -1.40262274329895
H           -3.34378695823176        1.50186386988851       -2.84243398374308
H           -4.83735339772688       -0.66228337321357       -3.23277924430243
H           -5.49742845747049       -2.00693409076954       -3.66888373850879
H           -4.61159237751736        0.26203329920959       -0.24893307469399
H           -4.72714297392954       -1.65109560083316       -1.52684614274494
H           -2.30795557595757       -1.32319980757775        0.98288079922442
H           -4.51580564779774       -1.76623941454209        1.66215954220717
H           -3.29300510887301        1.50142983188995        1.60216124997540
H           -2.46100700485150        0.15234506520802        3.37134936443218
H            1.09927925885823        0.43014739371014        2.31348681990517
H            1.39377847118220        2.77779713269949        2.63139327062450
H            3.27417941279268        2.05992178473710        0.88992971010299
H            3.41198906952976        0.72466565942972        3.37186410216242
