48
 energy: -84.745632065237 gnorm: 0.000551052644 xtb: 6.7.1 (edcfbbe)
C            5.61633997563163       -0.77709515676547        0.11890759971474
O            4.79421037804352        0.30502430341765        0.55112240351587
C            3.47643050725561       -0.03429793758433        0.79519943461709
O            2.85498051254572       -0.40980568310807       -0.41678301076075
C            1.49360687205085       -0.75181163985526       -0.26422744768709
C            0.98220084421118       -1.26469877473779       -1.61787803399059
O            0.27399502981506       -2.46245261390120       -1.40466678272527
C            0.69001846580702        0.45379703062168        0.25206847132356
O           -0.64609851388270        0.03151413442034        0.41611687915940
C           -1.61608232090044        1.05449288853411        0.44503576932747
O           -2.25578081608139        1.17892697410055       -0.78669617523702
C           -2.92754570960563       -0.01943640247028       -1.22343817637755
C           -3.38448473076001        0.22025263717263       -2.64453220424509
O           -4.35355769879019        1.50688770674936       -2.51421693899378
C           -4.00758643462607       -0.39154206089215       -0.17793544945642
O           -4.61963991259332       -1.59417358409171       -0.57817585614644
C           -3.36859404872445       -0.53902195023030        1.20739578554275
O           -4.39524690270973       -0.82289738318829        2.13285998900709
C           -2.62027928190714        0.74590896748837        1.56544228559333
O           -1.98564394559340        0.58215551784169        2.80864072887089
C            1.30001713577139        0.89808028342072        1.59366054273071
O            0.62042298073110        2.02004833517157        2.10741339395659
C            2.78682272293763        1.20027145105236        1.39423388334040
O            3.32188913034412        1.54729688945811        2.64293897064478
H            5.24538707194259       -1.18496268835355       -0.82159219617183
H            5.63703056319562       -1.56210741906070        0.87969605034878
H            6.60596074685405       -0.35064754416134       -0.01435672483953
H            3.40913306767631       -0.88034580790037        1.51294446669491
H            1.38452949690037       -1.57050456913245        0.46355703924395
H            0.33614362761631       -0.51215197799096       -2.08428552907427
H            1.86061867011463       -1.43404510086742       -2.25209424503980
H           -0.02278818666348       -2.80896909513066       -2.25851030080802
H            0.74845735611322        1.27637445888860       -0.47264561384041
H           -1.14433431722959        2.02840174776564        0.62644006017053
H           -2.21073644747354       -0.85189875344801       -1.25096673091243
H           -4.51175981634182        1.76603075005143       -3.44465419159475
H           -4.11514399981005       -0.58212659727377       -2.86151350155141
H           -3.74345555140051        2.15911423669621       -2.11461814376116
H           -4.76278424024809        0.41105933611022       -0.12369786958407
H           -5.17594989130912       -1.89918118097829        0.15401265601824
H           -2.63883392093687       -1.36284938779484        1.17720833118255
H           -4.01279740547996       -0.81706668125995        3.02229708674081
H           -3.34498301029912        1.57580337194471        1.61687378307798
H           -1.24763512547608        1.21018535035056        2.86819231369011
H            1.20355134879170        0.06207796985765        2.30489283394882
H            1.19242726660940        2.41866420251267        2.78537522009374
H            2.90065613287177        2.02486955568972        0.67481931815668
H            4.27283733414223        1.70821590539648        2.54939191741630
