48
 energy: -84.860872716954 gnorm: 0.000997594568 xtb: 6.7.1 (edcfbbe)
C            5.50659901322715       -1.15110333839240        0.46331203206460
O            4.82382190235341        0.07519726943884        0.71456482411572
C            3.44798836138194       -0.03937161879628        0.79267140470311
O            2.93093728684300       -0.36310095270911       -0.47953953085674
C            1.53608374966556       -0.57953974246009       -0.46766777665574
C            1.13750089866027       -0.92370389807745       -1.91083381496692
O            1.39811325433099        0.12609250231093       -2.80089458286100
C            0.74681950233356        0.63737925053016        0.04516336756212
O           -0.55939118656517        0.14268636925750        0.30612793616737
C           -1.58811617583146        1.09897656875954        0.37211680763094
O           -2.31037009517341        1.15359357372693       -0.82624930438157
C           -2.93443016546009       -0.07318934857083       -1.19714552813993
C           -3.67792699027100        0.20136364558459       -2.51239831743473
O           -4.58383545811183        1.26525811319154       -2.39219100343586
C           -3.89324019866966       -0.56870834257064       -0.10264804433362
O           -4.44912848374648       -1.82115062594034       -0.41486816107906
C           -3.16821006975860       -0.62056966691139        1.24929947726454
O           -4.05463343335237       -0.92316255244670        2.30188119041981
C           -2.51942260967091        0.73460662354373        1.54252430013904
O           -1.76859407928656        0.71685741208015        2.72435186556052
C            1.35557243178523        1.25981240801458        1.31165821055701
O            0.83740638141078        2.56140698892928        1.44838788479926
C            2.88843990748849        1.31274576121276        1.24934089416928
O            3.34796024602304        1.66201949556540        2.52811885323194
H            5.20824965186683       -1.56514522505134       -0.50041086449498
H            5.29270042075722       -1.87177083314634        1.25748878217313
H            6.56240627560891       -0.89755091502502        0.45666337209291
H            3.15388274229795       -0.83000648976573        1.51516067921512
H            1.29561060308429       -1.42702822442018        0.19272730823461
H            1.67275337006264       -1.83163983529662       -2.21175177807785
H            0.06274124965339       -1.10376188888745       -1.94781478399933
H            2.34839142076460        0.31488656902262       -2.77957061164562
H            0.70982741211638        1.40716256609770       -0.73782023971672
H           -1.17991824604787        2.10225485412876        0.52378898535582
H           -2.16016634217097       -0.83616077760979       -1.36358487514127
H           -2.94067113543922        0.40566466976546       -3.29762404598570
H           -4.26852597117558       -0.67619001458546       -2.78020637615294
H           -4.08828697403977        2.05107964908616       -2.12021478486966
H           -4.74189035955082        0.12142904235497       -0.03353859660919
H           -3.74174431543072       -2.46663567386777       -0.56451009307351
H           -2.36567295580798       -1.37558298054384        1.20351826666370
H           -4.67406015150412       -1.60451516577906        1.99818187348765
H           -3.30987248149601        1.49887830772875        1.59908309428490
H           -2.32925963061107        0.35046556274329        3.42729500097284
H            1.05854676543770        0.64352268799810        2.17344599132209
H            1.20964346196105        2.95545145943100        2.25246268651458
H            3.18892945842190        2.06435279762023        0.50412407374705
H            4.31698174150418        1.68613796949525        2.52414298220513
