48
 energy: -84.853375756242 gnorm: 0.000495882701 xtb: 6.7.1 (edcfbbe)
C            5.59113331750800       -1.04494289674877        0.20958476658622
O            4.83662134315031        0.10980054197122        0.56741406957821
C            3.49004236865683       -0.11171010190773        0.77189398791889
O            2.87885280915081       -0.48115217107240       -0.44835508504454
C            1.49103782903644       -0.73207354807105       -0.34221446535770
C            1.00700494643236       -1.15542908355763       -1.73659013444461
O            1.41813619968923       -2.45134711985844       -2.07268632019453
C            0.72280244418217        0.50291429227090        0.15795075416357
O           -0.62317973799535        0.09149197653611        0.35046846481554
C           -1.58737441046805        1.12600943338586        0.37899567760993
O           -2.24111645770283        1.25196655186037       -0.85152710391803
C           -2.96190635875717        0.09588368949211       -1.25989589583892
C           -3.48995206595447        0.34811722610760       -2.66860588654338
O           -2.42909032806732        0.18458989358526       -3.58067210234062
C           -4.08554102349708       -0.19594612050390       -0.26005420279427
O           -4.79432965626259       -1.33013685568105       -0.68247997808236
C           -3.45279173164094       -0.40930543142683        1.11924099457533
O           -4.48924367216147       -0.62121893458449        2.04937285046226
C           -2.59761530531812        0.80678314314057        1.50372699607270
O           -1.96266716436439        0.59277109175856        2.73512137680882
C            1.34967507254429        1.02840667126294        1.45769732195841
O            0.76968431272521        2.26257080071687        1.79562014604020
C            2.87203493561981        1.19105772373167        1.29693395549750
O            3.44366162297786        1.63143467865026        2.49660500499296
H            5.29087001033010       -1.40963259716923       -0.77286613612877
H            5.45851975321280       -1.83386828676062        0.95500824624054
H            6.62542477676470       -0.71495317205283        0.18901434022534
H            3.33047616756701       -0.93305930817027        1.50767630204290
H            1.31485834025285       -1.55833282501513        0.36474506925838
H            1.36718571795039       -0.42041944931958       -2.46505508614176
H           -0.08337320492277       -1.16174937674535       -1.74980679444972
H            2.38297727399891       -2.46510731423602       -2.14663133021614
H            0.76487563709190        1.29373048420267       -0.60160001162682
H           -1.11252056445644        2.09285307452416        0.56596020197963
H           -2.28745545418014       -0.77015358505025       -1.29614288511019
H           -3.88812570728319        1.36858730043447       -2.70732059382997
H           -4.28858039614200       -0.37756092658227       -2.85949836380946
H           -2.75590202493706        0.34647270728506       -4.47716968503450
H           -4.75453540094874        0.67771345816734       -0.20732036800122
H           -5.39276400476880       -1.59261015194931        0.03465048670131
H           -2.80311379904540       -1.29895417483361        1.06866635908323
H           -4.13507071250542       -0.50516755582492        2.94433227802821
H           -3.25007179669353        1.67489818361575        1.63972187695704
H           -1.25919687957733       -0.05945298121185        2.59733966314712
H            1.15361579009475        0.29396084049695        2.25792277357391
H            1.33479997948758        2.69619811362059        2.45714907917354
H            3.07657246022889        1.97637535719014        0.56179048098016
H            3.50384374896962        0.90446474107207        3.13418496682876
