48
 energy: -84.854669222834 gnorm: 0.000654113042 xtb: 6.7.1 (edcfbbe)
C            5.71490127668361       -0.87874529939523        0.24650346059658
O            4.88064869672047        0.21767981384381        0.61101742217785
C            3.54698578258627       -0.09565242612251        0.79784135319338
O            2.96456681987653       -0.45956825683703       -0.43639249256414
C            1.58132980169566       -0.75031739422241       -0.35134060590760
C            1.12489671026945       -1.17115625737235       -1.75518522768921
O            1.61124009159750       -2.43259443864753       -2.12071905348704
C            0.78568933680607        0.46668024356958        0.14991305500853
O           -0.56512062544777        0.07022544836920        0.29323461570231
C           -1.50718293609407        1.11901434945292        0.30498062363843
O           -2.12642354900939        1.25689126336475       -0.94288203770113
C           -2.86497208711950        0.10339903118064       -1.33473291944325
C           -3.40352974761924        0.34176993198334       -2.74202898168800
O           -2.35096116137952        0.16646764064954       -3.66145899373465
C           -3.98347186739718       -0.16587405509833       -0.32086323934073
O           -4.71352759556756       -1.29666893378841       -0.71525472374920
C           -3.36186156074027       -0.36910649905097        1.07439341953675
O           -4.36004744892416       -0.67358238538978        2.01453869173335
C           -2.53186237635895        0.86767879644019        1.42795394144738
O           -1.90170373859842        0.69115550255299        2.66657581073604
C            1.36643432486597        0.89637826606936        1.50932169997390
O            0.70257236065596        2.03788669746993        2.00009284995649
C            2.86591537131206        1.15833306036240        1.36368954174924
O            3.36120594946676        1.49750872319954        2.63104191631521
H            5.44373253696948       -1.25492948949565       -0.73964668980986
H            5.63198130219152       -1.68033742044128        0.98523037590424
H            6.72470759410413       -0.47911058159947        0.23270955920014
H            3.43215778519243       -0.93683669878789        1.51457434534367
H            1.41411743757855       -1.58311042591711        0.34832182747093
H            1.43924723967102       -0.40182999999871       -2.46969672442820
H            0.03680924397400       -1.24164705230520       -1.76564832576783
H            2.57655695029864       -2.39157151906418       -2.17698207811566
H            0.86731813168244        1.28904216043083       -0.57165881230459
H           -1.00900818570333        2.08002470111072        0.47808314617778
H           -2.19801762754049       -0.76835784876548       -1.36301691323793
H           -3.80046913788654        1.36254497111506       -2.79014497571041
H           -4.20527469242226       -0.38448746012414       -2.91729596273497
H           -2.68588526562103        0.31420129662708       -4.55762081304919
H           -4.64765183432329        0.71622095829544       -0.29231244781843
H           -5.14293427932500       -1.66598274303551        0.07532907606344
H           -2.69782425602383       -1.24003498828759        1.05076663084765
H           -4.79096432359516        0.13815638042779        2.32018666610735
H           -3.19988901062352        1.74691326352281        1.46069230107884
H           -1.13847090701994        1.29128751738266        2.71962568125536
H            1.22131329820461        0.06419632255813        2.21692540747866
H            1.26713279044652        2.42370958759372        2.69172719221219
H            3.02844154219274        1.97638236446865        0.64598437217157
H            4.31882884204559        1.63377489729806        2.57413208687690
