48
 energy: -84.622168269286 gnorm: 0.000471169938 xtb: 6.7.1 (edcfbbe)
C            5.82403125658849       -0.62155211012492        0.12655225111970
O            4.95450805245425        0.42221890266216        0.56052356382638
C            3.65124768339361        0.01395214507875        0.77841157379008
O            3.07336741229224       -0.33498139261002       -0.45272550641983
C            1.73897275157386       -0.79267466768429       -0.34735522283805
C            1.40493737525757       -1.41250016830572       -1.69659079240120
O           -0.01843456593544       -2.00730935921161       -1.55423353007013
C            0.85485748212397        0.40516147798356        0.12422166880740
O           -0.49158460013923       -0.05354403070189        0.29396631322438
C           -1.48932769701204        0.95485548103704        0.28491387260956
O           -2.14506042154235        1.05354349282662       -0.93337328157197
C           -2.99545419892615       -0.05532107477218       -1.29751490132753
C           -3.45321070092365        0.18082819623247       -2.71963313671852
O           -4.26376757473784        1.49267077592669       -2.75662114549552
C           -4.05782031647800       -0.24825534089672       -0.17951444009169
O           -4.87238153979278       -1.33991646491217       -0.52320378742132
C           -3.35904490609624       -0.47418424832140        1.16519646639641
O           -4.35772853126284       -0.62855406723054        2.14845878776722
C           -2.45701095471044        0.72352111972583        1.46201447253588
O           -1.77793128715571        0.48684848552205        2.66760340894366
C            1.39089626409759        0.92592686420913        1.46969587595209
O            0.71982129700404        2.08282599398599        1.93635059572045
C            2.90344097898767        1.18155151505938        1.43614514604323
O            3.41283609758493        1.33394507450925        2.73391976269464
H            5.45920707352299       -1.05341393303796       -0.80667767391940
H            5.89138590992601       -1.39709485133173        0.89495194966476
H            6.78994531362667       -0.14780558249112       -0.01983047494076
H            3.62058975643520       -0.85984163397807        1.46591129823285
H            1.68701359011287       -1.55872063658729        0.44999202784270
H            1.23679986370334       -0.58052054921519       -2.40715804753860
H           -0.49560506622888       -1.48477808573945       -0.86720927523895
H            0.09465359665797       -2.93740109124930       -1.27190112681238
H            0.88874382190289        1.18936485054260       -0.64315837482830
H           -1.01335007650216        1.93357543829763        0.41569729952324
H           -2.41719095565688       -0.98683296665481       -1.33859010225244
H           -4.98604273007570        1.54766800295430       -2.09484981039138
H           -4.20761586966233       -0.59341579799999       -2.93863177218218
H           -3.59339128803452        2.18430560273018       -2.58820067703685
H           -4.67457810347239        0.66132679672660       -0.06809698587842
H           -5.39892319540245       -1.57847258475647        0.25442134150122
H           -2.73787441873949       -1.38045214211567        1.11254193912501
H           -3.93182720204592       -0.67733601112718        3.01619386805753
H           -3.09379313347005        1.61973917021885        1.54953796361313
H           -1.11199136990085        1.17862952436739        2.80545418732127
H            1.18304410198512        0.15531619207301        2.22241023314362
H            1.01232409276731        2.85399856432900        1.42619819143440
H            3.11687952578403        2.07337304059663        0.82436892070628
H            2.90055441955704        2.01416710341320        3.20091016115241
