48
 energy: -84.744884775672 gnorm: 0.000190824658 xtb: 6.7.1 (edcfbbe)
C            5.74214391054390       -0.76474484951705        0.14893999654171
O            4.94114533659191        0.34206150474894        0.55975277008973
C            3.60084032806123        0.03828407461705        0.73503099935629
O            3.03108345131349       -0.33227117402086       -0.49341175295187
C            1.68057605336205       -0.72997569442845       -0.36407398185335
C            1.27145691495778       -1.34187806301834       -1.69692644820638
O           -0.12428758232383       -1.98715892371629       -1.43368902433272
C            0.83031976698677        0.48041924908165        0.13338557690205
O           -0.50563584805492        0.00362932169822        0.32236405120676
C           -1.51417487654995        0.99570822281564        0.35121093181617
O           -2.17989472701435        1.10281461595025       -0.87020082411886
C           -3.01323339192421        0.01035238265266       -1.26430495040042
C           -3.75159098303331        0.48195338906806       -2.52896005886881
O           -4.48084723278477        1.65985039392859       -2.30677871376670
C           -4.01279398527128       -0.38006169292465       -0.16582179984316
O           -4.75585516934678       -1.52067512109182       -0.50825299253256
C           -3.28802297885494       -0.57966008126107        1.17215915123913
O           -4.19718486042964       -0.80856813436971        2.22293533807758
C           -2.48393139313508        0.68003880391896        1.50387625166464
O           -1.73906109910852        0.53352045183368        2.68030225887878
C            1.40279160888865        1.08398253588593        1.42077638965962
O            0.77727300091353        2.32082956280144        1.67688138433884
C            2.91680834780000        1.29516735484991        1.28770497937274
O            3.40784795585559        1.64019528481189        2.55678354571906
H            5.37568791438045       -1.16541320032837       -0.79671861031839
H            5.72359498869500       -1.54476103561172        0.91542091130177
H            6.74580097101202       -0.36682275062816        0.03453401709343
H            3.48069012973324       -0.79778606246716        1.46092016903205
H            1.62360750340896       -1.49575603452413        0.43521375801179
H            1.01456202526894       -0.50761118347561       -2.37918841998761
H           -0.52091554285302       -1.47706004973679       -0.68594965362096
H            0.06096742162076       -2.91251675006358       -1.17005089206017
H            0.83301421328056        1.25745764029332       -0.64426215923481
H           -1.05995926819206        1.97443907426839        0.52505971137070
H           -2.39546865995162       -0.85945325685079       -1.52596381789280
H           -3.02029097648737        0.62246436099284       -3.33316375801792
H           -4.47858949117984       -0.27785114537642       -2.82057558968316
H           -3.86113422155382        2.35288787983884       -2.03810250087592
H           -4.74677665649302        0.42656358515198       -0.05355581149658
H           -4.16168124009262       -2.25423910297983       -0.72871668550388
H           -2.58941987593667       -1.42919994785388        1.09968472387282
H           -4.91144467493744       -1.37759475322976        1.89562447683440
H           -3.18445946123741        1.52480638432775        1.59249424482297
H           -2.34494549393726        0.23568486027762        3.37763804447846
H            1.20852838840294        0.38894634482333        2.25172219854097
H            1.18052814907542        2.70203195060913        2.47204991068280
H            3.09484923693720        2.10480537072800        0.56298726615233
H            4.36853810299876        1.75434742516527        2.50219948299154
