48
 energy: -84.852759244381 gnorm: 0.000593465272 xtb: 6.7.1 (edcfbbe)
C            5.79203954030356       -0.77948746355163        0.14060108735369
O            4.96164687690430        0.32053582044110        0.50595334660762
C            3.65311752657252       -0.02388600994921        0.77811459833388
O            3.03182133589711       -0.39499752933970       -0.43550488651736
C            1.66224049320050       -0.71648104781321       -0.32531187145373
C            1.20253690775364       -1.18578244327117       -1.70812573695478
O            1.42782979233434       -2.56969576374927       -1.81809233072028
C            0.86613565537214        0.50396409758038        0.16393126609129
O           -0.48966997114658        0.11716632829500        0.31806923952074
C           -1.43317406381878        1.16570922695103        0.31849980177271
O           -2.06055953220363        1.27751116356525       -0.92704387370593
C           -2.80937595541206        0.12142470044866       -1.30336100931709
C           -3.46120365875431        0.41653344697487       -2.66424628531540
O           -2.60314902363510        0.20747266549278       -3.75536918231379
C           -3.87330125239501       -0.21958921333477       -0.24299205060692
O           -4.59600755546608       -1.37734942086952       -0.57181463369525
C           -3.21831927795057       -0.35605109365753        1.14098616213088
O           -4.17662685753118       -0.54600504346147        2.15425726276469
C           -2.44550344191679        0.92708427848304        1.44575846863008
O           -1.73745741091694        0.86841303786023        2.65518607104831
C            1.45035045133814        0.91372971883336        1.53305972788450
O            0.85868482726712        2.06902778716678        2.07984176350522
C            2.95595260173597        1.18639957571210        1.41062862852965
O            3.52473933068345        1.40151290126154        2.67200949714837
H            5.40404189916969       -1.26927428544719       -0.75404041639617
H            5.84826339680937       -1.49860157511272        0.96279469404511
H            6.76991925133639       -0.34901990152309       -0.05274855212220
H            3.60534853491467       -0.87389874541513        1.49142300249285
H            1.51994144463426       -1.54017837392637        0.39030432491208
H            1.77401681221157       -0.62376074868264       -2.45348107595619
H            0.13542288538440       -0.95694602662824       -1.81460416083712
H            1.33746731759404       -2.83823846023927       -2.74398481214124
H            0.95640738553980        1.32607124685505       -0.55545242815474
H           -0.93878066106550        2.13231688534203        0.46440543414000
H           -2.11682452267544       -0.73004323920730       -1.39279114823470
H           -3.72436919205598        1.47594531567464       -2.68319559261655
H           -4.37198553812454       -0.18518680018463       -2.75312460777351
H           -2.52744709491738       -0.73985640097037       -3.93804995899204
H           -4.61310529559294        0.58807601352211       -0.20385029425056
H           -3.99183266234794       -2.13167744151064       -0.65061349799123
H           -2.50269030224381       -1.19463037909339        1.13084035284486
H           -4.85076312607710       -1.16641487181950        1.83543865766792
H           -3.15342103624946        1.76968130614407        1.45647411432013
H           -2.34509311393267        0.56344307021293        3.34818743121644
H            1.30856309843294        0.06453387326619        2.21688784845389
H            0.01554835565551        1.82370957310124        2.50013322777085
H            3.11910976990763        2.05318695227814        0.75422645910946
H            3.04704406575111        2.13533031116935        3.09219998990518
