48
 energy: -84.634042343972 gnorm: 0.000858689343 xtb: 6.7.1 (edcfbbe)
C            5.77458244062902       -0.72680545469836        0.29711646811915
O            4.91002935962779        0.31380702558586        0.75019971953239
C            3.58660341189370       -0.06910386634336        0.89621032566366
O            3.05645742324467       -0.43249648157498       -0.35090321951448
C            1.70492621927377       -0.85143769491119       -0.29612251484795
C            1.39851184024647       -1.41665242083902       -1.67663596560216
O           -0.04740840600424       -1.96290442066693       -1.60619707520014
C            0.83239870422579        0.35224849398810        0.18887407474605
O           -0.53522056057574       -0.05263137363931        0.26176669436995
C           -1.47552417097348        1.01536464582301        0.24667029504026
O           -2.04395442094747        1.19619495669919       -1.00788350284817
C           -2.92623235288867        0.15579340244959       -1.44419745927157
C           -3.39888076074643        0.52662774568267       -2.84169336030777
O           -4.03127300834982       -0.79293825635796       -3.35619467670273
C           -4.04768288861681       -0.04460769877161       -0.39457213380004
O           -4.89346328944101       -1.08408908553258       -0.83363334321346
C           -3.44550249917719       -0.35967323905931        0.97524938879435
O           -4.50174171949981       -0.51710936060176        1.89570069279489
C           -2.51477759372690        0.78879770762828        1.35822289798436
O           -1.90568457168953        0.49651958129651        2.58882957279145
C            1.34081613794496        0.78281606885618        1.57388154920589
O            0.60641139135748        1.87327544089094        2.09347001278587
C            2.82557750140412        1.13091400128872        1.47648513384821
O            3.26956321812639        1.47041534261985        2.76361232542118
H            5.43756320475067       -1.10308571512276       -0.66912900589274
H            5.79392474038952       -1.54119421619995        1.02674576403906
H            6.75491664595837       -0.26826884229916        0.21105609925574
H            3.50365721159972       -0.93140265227532        1.59640741011239
H            1.60903143063985       -1.64134738802291        0.47355879208891
H            1.28765584867715       -0.55385879720276       -2.36176850724071
H           -0.53654090774493       -1.42970113083130       -0.93544185309495
H            0.02220402869108       -2.89954354505008       -1.32982986171235
H            0.93445526640664        1.17878381360254       -0.52518754447608
H           -0.94925172523393        1.95602030983261        0.44732266948586
H           -2.37222036433885       -0.79197643574102       -1.51708436721875
H           -4.26091957269416        1.22039043190444       -2.71549396584803
H           -4.69683406884390       -1.13626402525335       -2.71102125626793
H           -4.43801224110377       -0.58462166549547       -4.21886476802299
H           -4.62135212359272        0.89336928361327       -0.30410672268765
H           -5.49060902459795       -1.31644217879928       -0.10711248145640
H           -2.85647591599625       -1.28737154599416        0.92068442773552
H           -4.12916964103103       -0.56137579308428        2.78769157062547
H           -3.11565861867061        1.71088052054740        1.43517244153087
H           -1.12750745594351        1.07130509563747        2.69372164953061
H            1.22821901440337       -0.07375340553681        2.25912783680457
H            1.14806540780630        2.27355200113374        2.79474232360449
H            2.95881930579655        1.97247192551201        0.77956350517525
H            4.22340915206193        1.63691981184313        2.73479906011955
