48
 energy: -84.852135550047 gnorm: 0.000897671565 xtb: 6.7.1 (edcfbbe)
C            5.81674064442919       -0.70126581661779        0.13431455373625
O            4.91781612085127        0.34952204571588        0.47646389680741
C            3.63818718758524       -0.05911070645890        0.79271124684309
O            3.00054062308587       -0.50202281586559       -0.39011481369067
C            1.63074462925338       -0.82285720038726       -0.23790113663957
C            1.13368993622781       -1.34944730104260       -1.58993309970573
O            1.64013720703573       -2.61873561742152       -1.89650396382763
C            0.84338380449081        0.41907488087808        0.20501966893819
O           -0.52587588120492        0.07176241353757        0.32488281639721
C           -1.43470878347223        1.15048585573854        0.27976483232965
O           -2.02285030209658        1.27374816031140       -0.98305547107557
C           -2.80678332772813        0.15164211693360       -1.37836830017560
C           -3.42516817073699        0.47391404466924       -2.74585646550707
O           -2.52194053973478        0.35503256492323       -3.81269809536066
C           -3.89839869939037       -0.15730167051314       -0.34376535377056
O           -4.56500515209957       -1.32176391285547       -0.75294055690339
C           -3.26941766600144       -0.33247911937458        1.04757098052420
O           -4.31752191252520       -0.57368055087149        1.96119153032747
C           -2.49243541512569        0.95110525906453        1.37510856395605
O           -1.82454569545851        0.90787251699016        2.61252774028701
C            1.41638232746700        0.84806280167496        1.57139738159520
O            0.81776716248464        2.00339970199244        2.10801308098778
C            2.91661397868191        1.13620728348377        1.42891207882552
O            3.50305412134494        1.35781636776261        2.68148981081683
H            5.51202367450305       -1.17786417091264       -0.79825777793310
H            5.85729693309791       -1.44294721950016        0.93659096986369
H            6.78428374209529       -0.22288915645902        0.01441842869182
H            3.65619297847532       -0.89001223760233        1.52952183483286
H            1.51047606378185       -1.60953608766087        0.52242160850501
H            1.39319979113599       -0.61840292157960       -2.36434790243004
H            0.04960759148364       -1.45507684452998       -1.53774225846109
H            2.60341107118145       -2.56266345975048       -1.96577965057432
H            0.97209494996770        1.22024524112589       -0.53253298647863
H           -0.91460849607502        2.10252650057539        0.43274796705877
H           -2.15998119824413       -0.73353273386898       -1.46250059950066
H           -3.74427263344530        1.51751540671661       -2.73797276064844
H           -4.29312445959274       -0.17812596381964       -2.88785563614989
H           -2.32152418202307       -0.57928010869951       -3.96381644078320
H           -4.60107420964468        0.68992164230175       -0.29738908211535
H           -5.19411339696843       -1.57123058682061       -0.05728389943961
H           -2.56490645577433       -1.17198889983274        1.01775737221613
H           -3.98365027864583       -1.05778798837392        2.72927226468319
H           -3.18302757636807        1.80399944141755        1.33349543226154
H           -2.47580116714857        0.97095358670019        3.32838814562157
H            1.28696978545731        0.00644020402934        2.26703522682064
H           -0.04449464065296        1.76079122068672        2.49129346119234
H            3.05758189996288        2.00559536606084        0.77100582150479
H            3.03952502912687        2.09997748947789        3.10272758389985
