48
 energy: -84.852516303249 gnorm: 0.000904368510 xtb: 6.7.1 (edcfbbe)
C            5.57823953489890       -0.98643655918116        0.10942253570065
O            4.84011882542634        0.16781684026310        0.50484323826275
C            3.49204552976675       -0.05560638028671        0.71551974960914
O            2.87199070718842       -0.38469524102637       -0.51044571372873
C            1.48960252526378       -0.63700419500992       -0.38178803804397
C            0.97929967785769       -1.07714103451808       -1.76091904286580
O           -0.01903116665119       -2.05530692887672       -1.59829456431003
C            0.73971317261267        0.59438084207777        0.15606325090955
O           -0.59592748692331        0.18003299518237        0.35469082191526
C           -1.56671926909480        1.19431861903170        0.41545562458751
O           -2.23103119353115        1.31197456324857       -0.81427433459174
C           -2.83215899575543        0.08562532128874       -1.22649260663965
C           -3.39413997119161        0.28678222360769       -2.63168553173372
O           -2.35631908520385        0.10023901488360       -3.56708855264524
C           -3.91693034821439       -0.31984060569596       -0.21827618841687
O           -4.55710103532986       -1.51879905963091       -0.57160496570430
C           -3.31442025929450       -0.42523625883078        1.19540701778073
O           -4.33024214283093       -0.62985427667807        2.14683343174323
C           -2.56018984029289        0.85870265509581        1.54907939324679
O           -1.89178693949844        0.67182753132181        2.76618761736145
C            1.38175427770604        1.06315367218647        1.47255691506336
O            0.79601728977631        2.27346598071980        1.88970356212254
C            2.89146484667194        1.23757336293666        1.28176168638382
O            3.44042749900552        1.57076382671247        2.52855413131999
H            5.20316368749457       -1.37158018843228       -0.83915775143663
H            5.50720958833512       -1.76083019504743        0.87780421650311
H            6.60472748094991       -0.64921037557558        0.00373937183094
H            3.33363617739968       -0.88695465948536        1.43549352958781
H            1.31623966916876       -1.46435388963910        0.32377806336276
H            0.58457806863923       -0.21328955271887       -2.30934214302558
H            1.84281283524356       -1.48258496245976       -2.30098076490460
H           -0.23030596542832       -2.42106201707399       -2.46953680955405
H            0.78509544168527        1.41150308249776       -0.57653780840225
H           -1.10661893331702        2.17131461176379        0.59729949330636
H           -2.05849283540392       -0.69518966884853       -1.26109668198020
H           -3.80293844774643        1.30128179639640       -2.69214177832699
H           -4.19480501245636       -0.44650135223376       -2.78929802182829
H           -2.69104650004737        0.29259232940961       -4.45438618380896
H           -4.70352566626054        0.44361169954784       -0.20569732646006
H           -3.89547732834029       -2.22278476207934       -0.64936216633314
H           -2.58706532646763       -1.25190291775261        1.22625453751131
H           -4.91438096223905       -1.33222003710784        1.81829241124968
H           -3.29135847545266        1.67788817819698        1.62325432764435
H           -1.39723011685343        1.47750878522806        2.98014091033214
H            1.20667382878479        0.28882121198588        2.23616756474005
H            1.37109915457983        2.65186742064317        2.57544641909840
H            3.07381050749821        2.03523538975921        0.54584787132534
H            4.40360398969164        1.63963818504681        2.44448334542678
