48
 energy: -84.847565278251 gnorm: 0.000665303162 xtb: 6.7.1 (edcfbbe)
C            5.77163988807827       -0.64039709020985        0.01971351090989
O            4.89951589801151        0.41057829762617        0.42644135404199
C            3.61404155024388        0.01468985922840        0.73240247158492
O            2.96738607404936       -0.41325762938212       -0.45105273868194
C            1.61526547920441       -0.78177955120801       -0.26523274955053
C            1.09211383712767       -1.28548053882505       -1.61703923421166
O            1.65533499360775       -2.51372107919076       -1.98488536765807
C            0.79837346915773        0.41659823683934        0.23803259756409
O           -0.54602174740317       -0.00655510836395        0.40678699875914
C           -1.51442141156750        1.03097939805587        0.42535688193500
O           -2.15693648799024        1.15788261087723       -0.80461155359109
C           -2.95478480070557        0.04608523229865       -1.19048041674706
C           -3.61027777048336        0.39670804905286       -2.52664280060819
O           -4.53362568576882        1.44177877242624       -2.33437840807092
C           -4.01217424046843       -0.29057073815520       -0.13302286112086
O           -4.66712154089391       -1.46225004907380       -0.54720121328506
C           -3.34299578213642       -0.49089874750666        1.23257840270345
O           -4.36120516609134       -0.70736023200417        2.18096898054630
C           -2.48676790651810        0.72887517895724        1.58144264832246
O           -1.77007715244849        0.53141998735952        2.77586336276462
C            1.40527042418733        0.88766536977849        1.58065263935458
O            0.77121248364523        2.03118395882022        2.09964461007660
C            2.89419846755785        1.21925159757973        1.37315766072499
O            3.51899187293414        1.61722304647506        2.55643100878286
H            5.44076643633296       -1.06911491227344       -0.92689051648201
H            5.81375931911039       -1.41952623392230        0.78611027967665
H            6.74558697356891       -0.17491366448928       -0.09777358081165
H            3.62347775163413       -0.83527616840946        1.45243394288785
H            1.54728973885222       -1.59771303287321        0.47116739890954
H            1.28689862529439       -0.51631418816089       -2.37325345390980
H            0.01698164727612       -1.45019267783004       -1.53531981057292
H            2.60994877698709       -2.39810151574792       -2.09317835658294
H            0.85032033248995        1.23005572907462       -0.49476573713422
H           -1.03090064825227        2.00077636057228        0.58365725304010
H           -2.31697979925269       -0.83831078397396       -1.33156675193132
H           -2.81809800614943        0.69855571164349       -3.22122103032950
H           -4.11116693467726       -0.50644053189630       -2.89468003601702
H           -4.91108170116858        1.68879694977662       -3.19090520584296
H           -4.71873954210272        0.54838857656645       -0.06133455559043
H           -5.30715750933955       -1.70677996115268        0.13857594922712
H           -2.68908414850322       -1.37744664731654        1.16729664318898
H           -3.99610085527163       -0.60893856651247        3.07322612939749
H           -3.13228541828963        1.59658486105599        1.74234936274379
H           -1.22202242166863       -0.26186922559329        2.66140438910247
H            1.33262366061088        0.05420702711667        2.29476945812215
H            0.00451728732972        1.77543213057584        2.64105665839086
H            2.98578500118056        2.07356678937636        0.69624681497473
H            3.44432370437354        0.92536717916092        3.23158498821434
