48
 energy: -84.851770733730 gnorm: 0.000656447546 xtb: 6.7.1 (edcfbbe)
C            5.52312322301618       -1.25326303036826        0.40602779132030
O            4.87985836057105       -0.03188592537051        0.76471574677696
C            3.50383240215142       -0.11684335336528        0.84583028865129
O            2.97828455060892       -0.39831627766381       -0.43361087786967
C            1.58395155302076       -0.60197132500154       -0.43971133213017
C            1.18488349678435       -0.94203148584717       -1.88398322573617
O            1.60289167969759       -2.21683166013077       -2.28558924948549
C            0.81051453408094        0.62633643424963        0.07135786894381
O           -0.51325118965145        0.16910921309640        0.30817173517800
C           -1.51156204399049        1.15901878032563        0.36232926266450
O           -2.21091754930042        1.23946785072681       -0.84934274046678
C           -2.86792152628079        0.02761994568570       -1.21044153032201
C           -3.46942362300041        0.21806701907758       -2.60121152552219
O           -2.47652789237943       -0.07465577811109       -3.55763739971974
C           -3.93000074692812       -0.33349482489386       -0.15252926424362
O           -4.67349296834256       -1.46910178514399       -0.49797282777810
C           -3.22029342655232       -0.47761077617251        1.20120444046299
O           -4.08410843557041       -0.83261893980010        2.25236016060169
C           -2.47644508910575        0.83045747258405        1.51725712974170
O           -1.75056570083431        0.73532515063790        2.71136912350458
C            1.41653237473327        1.19937992349943        1.36339493760773
O            0.92159328242836        2.50555739640272        1.54239379812172
C            2.95631323263856        1.23042480744969        1.33394371664067
O            3.46033864966511        1.62095361369894        2.58098681476057
H            5.18275126014481       -1.58950873254873       -0.57443375080445
H            5.31666574741084       -2.02356854671792        1.15491565563419
H            6.58369552942783       -1.02275157200515        0.38307880322565
H            3.19825771826790       -0.92973003146561        1.54425385938571
H            1.33325737636275       -1.44226482052584        0.22963420855280
H            1.68963099363029       -0.23882371841889       -2.54875110154329
H            0.10085414581484       -0.82240341202072       -1.99217766243344
H            1.13216575773923       -2.89295109132978       -1.77732022946568
H            0.80961666349561        1.41367306485020       -0.69318166020507
H           -1.06974640032688        2.14662736358608        0.52265115041584
H           -2.12463865334146       -0.78014259239644       -1.26639532500612
H           -3.80833527892493        1.25623031442245       -2.68434818248239
H           -4.32319091625308       -0.46336883427352       -2.70539907160165
H           -2.81122320108415        0.13120662494366       -4.44175361448597
H           -4.65790087940296        0.48559048846212       -0.09943762435459
H           -4.11257276246743       -2.25759926148143       -0.46139109790157
H           -2.47643206672500       -1.28161855524897        1.14755360443696
H           -4.90260199391873       -0.31831916838745        2.19796867585360
H           -3.20471688724663        1.65657849005485        1.57914010349657
H           -2.29453265322301        0.24380154412824        3.35039684426898
H            1.07938609921455        0.55989702401072        2.19625065746702
H            1.41224645982306        2.92164569217843        2.27045634770362
H            3.28843359873090        1.99536556793486        0.62413663730398
H            3.36422319195288        0.90462271984703        3.22593495524356
