48
 energy: -84.850811918820 gnorm: 0.000277262648 xtb: 6.7.1 (edcfbbe)
C            5.65878143055459       -0.88565046746275        0.23151551071960
O            4.88465653768010        0.24048501246140        0.63992644961033
C            3.54267442339164       -0.02681485452994        0.81921360472958
O            2.96145624425949       -0.34999868162766       -0.42768896245024
C            1.59222444910137       -0.68144050825275       -0.35227332968621
C            1.15522219164627       -1.10907374277310       -1.75368247619725
O            1.57534588629890       -2.43332880561579       -1.96826117269593
C            0.76639767351104        0.50873877229106        0.16614927782568
O           -0.56527240593862        0.05973971311930        0.34378293583568
C           -1.55462039704571        1.06425208636458        0.38136205951609
O           -2.21116559370223        1.16929324311138       -0.84828237083492
C           -2.93712309401487       -0.00159144619341       -1.22440419104365
C           -3.64340717967740        0.33211701090713       -2.54645304614511
O           -4.44422735956926        1.47928744486950       -2.44102102298448
C           -3.95734458980580       -0.41019397215721       -0.14252170518392
O           -4.63757594885553       -1.58157735796370       -0.50808644854542
C           -3.25629465658156       -0.55253787281548        1.22157887482058
O           -4.14113720196492       -0.95431271092921        2.22983966671612
C           -2.52630885726481        0.76174026726392        1.53538338314948
O           -1.84207829072048        0.64760998845055        2.75304475871222
C            1.35314332639555        0.96108762323030        1.51467458549800
O            0.69139709199290        2.11447717220288        1.98336712323805
C            2.86202117342016        1.22496595390967        1.39053169759184
O            3.38405287393248        1.64706997656249        2.61864095713330
H            5.29624131416948       -1.27210968764760       -0.72189133304816
H            5.61150730366540       -1.67253600848621        0.98992669969911
H            6.67452203958458       -0.51533911120060        0.13289354316443
H            3.39823111864716       -0.88682761598737        1.51220485335856
H            1.44511540800942       -1.53050499838378        0.33254717763947
H            1.61634857611800       -0.42273838555883       -2.47216048964503
H            0.06277028614460       -1.03144465280769       -1.81168866729696
H            1.42417463257847       -2.67382124945198       -2.89392327600064
H            0.80270857556487        1.33452934593004       -0.55494823636354
H           -1.09470970820337        2.04725052367318        0.53797555491840
H           -2.23507122381634       -0.83269351040233       -1.37891268297163
H           -2.88970607781524        0.45928726957761       -3.33280043397854
H           -4.31177469046935       -0.49094915317308       -2.80478851539814
H           -3.87850181263051        2.21672102615979       -2.16877453834381
H           -4.72820542798711        0.36854133876531       -0.08550985641551
H           -4.08323466674030       -2.35470402225434       -0.32819482888855
H           -2.50196561837820       -1.34658606140776        1.17064816109868
H           -4.81692357478271       -0.27541030125980        2.36977591662387
H           -3.26161215676391        1.58294806079479        1.58302198366974
H           -1.16838563391444        1.34622504859843        2.80276454767115
H            1.18704024320534        0.13908599969675        2.23170712599700
H            1.30730834031866        2.58828355436516        2.56989401321670
H            3.03867405705751        2.04903069816576        0.69086882423544
H            3.48256697887313        0.89726606240031        3.22396135249044
