48
 energy: -84.858677801445 gnorm: 0.000589775491 xtb: 6.7.1 (edcfbbe)
C            5.64905979963796       -0.98547096671532        0.31396168554873
O            4.88219969247305        0.15698222627748        0.68854733343452
C            3.52791482479196       -0.08394069023203        0.83269126140350
O            2.96957557003078       -0.40556478129130       -0.42162401808251
C            1.59348136517017       -0.70479696355435       -0.35463767014937
C            1.15540300121082       -1.13244742025337       -1.75661044439333
O            1.47737402114535       -2.49049605693335       -1.92958098448754
C            0.78092200933526        0.50023083279211        0.15480877669304
O           -0.55348120715877        0.04353782318118        0.31813198825870
C           -1.56113725063106        1.03547692455569        0.35032312414308
O           -2.20243772134644        1.15286343129063       -0.88886920077979
C           -2.87901542415119       -0.02330481636053       -1.32701468623230
C           -3.47668113040568        0.28421416122478       -2.70344425158687
O           -2.49227180396070        0.56511460140800       -3.66317707359621
C           -3.96434689278017       -0.43347260440798       -0.32800439722239
O           -4.56883918325301       -1.61294864197215       -0.78699417362350
C           -3.31967113632542       -0.62567624422668        1.04885382169554
O           -4.33798655856453       -0.93593222910626        1.97053551458902
C           -2.56800621431227        0.65036104305201        1.45422824215250
O           -1.94599513957872        0.48508904093265        2.69914986921107
C            1.36454254166196        1.02528593937503        1.47611689167335
O            0.75299882008767        2.25086270789904        1.78873643319978
C            2.88535631906074        1.20025106563954        1.37309962752934
O            3.35235352590949        1.52023531109939        2.65643976373845
H            5.30034727467585       -1.38212193958704       -0.64011330200730
H            5.57461105917626       -1.75804529615391        1.08434944151892
H            6.67176993898768       -0.63076034393164        0.22922227684768
H            3.34661339744858       -0.92303790570664        1.53859579276165
H            1.42802750132184       -1.54913278466609        0.33250870906500
H            1.68753895551965       -0.50440383772205       -2.47997021204185
H            0.07530770135192       -0.97298503341092       -1.85111797129180
H            1.24664081041033       -2.76096405808051       -2.83030539344540
H            0.81515166578267        1.30853312244570       -0.58637785198174
H           -1.13104521308641        2.01906331554296        0.55886054269536
H           -2.16033785474735       -0.84895142190925       -1.41847897468452
H           -4.17515741340944        1.12303310842028       -2.60250134749024
H           -4.01555617832477       -0.59867856121017       -3.04951405912677
H           -2.03050082719575        1.37177586362818       -3.39410811027241
H           -4.70867060394566        0.37521178952386       -0.25139110908729
H           -5.15935797294139       -1.93985006686673       -0.09008163526972
H           -2.59876624691758       -1.45736242523629        0.98563318459778
H           -3.99528545518944       -0.80744350884055        2.86779543913404
H           -3.28503991386029        1.46833578207423        1.57540411970474
H           -1.19403884702242       -0.11481961960364        2.58305647084823
H            1.16473002230461        0.28889799217646        2.27039468011665
H            1.18850900346430        2.61698274815670        2.57508213458883
H            3.10855897527807        2.00585818309073        0.65815622466241
H            4.31675140077805        1.61144521208516        2.63169754974244
