48
 energy: -84.857963563987 gnorm: 0.000263003593 xtb: 6.7.1 (edcfbbe)
C            5.60483042574916       -0.93442985314806        0.27912665084194
O            4.84356870443995        0.22187859617372        0.62059591609601
C            3.48984354364092       -0.00775412774025        0.77865994081145
O            2.91570268327066       -0.31526942272983       -0.47362905354988
C            1.53027243185286       -0.58487877202812       -0.40787799313682
C            1.08327796913530       -0.91125005312793       -1.84103057940071
O            1.26000209294567        0.17063246314698       -2.71304812362302
C            0.73372486012841        0.60351804324116        0.15908580931160
O           -0.59002204118042        0.13440489695059        0.35710616979507
C           -1.58905413045702        1.12377039398573        0.44507824185791
O           -2.27845358223823        1.26278421630853       -0.76487859280503
C           -2.95214310160570        0.08045742480074       -1.18942747708436
C           -3.67161434029549        0.43709394833363       -2.49742531992661
O           -4.52428159708917        1.54121436759101       -2.34818425787013
C           -3.94885959283480       -0.43693919017183       -0.13173003792846
O           -4.52855918492768       -1.64256545320230       -0.55131912699624
C           -3.25307883182445       -0.56751880561709        1.23024172025380
O           -4.20966184384292       -0.91599888791177        2.19799922704320
C           -2.55869964097774        0.75330132284322        1.57980225878973
O           -1.89755348155998        0.58618970691996        2.80648953152823
C            1.34811722887044        1.06094482114754        1.49258402851701
O            0.72445410120697        2.24377544147489        1.93269549663800
C            2.85710310337453        1.27146854041221        1.34047514757629
O            3.36395607311589        1.60064586252308        2.60594864889914
H            5.27788414950280       -1.33934039145367       -0.67909266671937
H            5.50248192510542       -1.69637139975295        1.05679597149381
H            6.63407850417669       -0.59443762717462        0.21571550384970
H            3.30800558613705       -0.85182781637465        1.47746581643502
H            1.34392576232148       -1.45313774222488        0.24157750801306
H            1.64029213682846       -1.78899690320755       -2.18874735343674
H            0.01635788643483       -1.13640720463384       -1.83403638470189
H            2.20408838870373        0.38490752541219       -2.74621103570074
H            0.74073992934724        1.43282785490592       -0.55929506098416
H           -1.14346705349888        2.10639949009417        0.63499607539811
H           -2.21060999436044       -0.70683988344295       -1.38548394897896
H           -2.91947160067263        0.63141721215674       -3.27190921439953
H           -4.30071832720087       -0.40361573120475       -2.79412945906598
H           -3.99310197463932        2.28831059606725       -2.03604791915306
H           -4.78067600799531        0.27026037888591       -0.04132368995132
H           -3.89223137402914       -2.36596127880708       -0.45278569583716
H           -2.47296603186548       -1.34447547011019        1.16732989177616
H           -3.79065527763129       -0.86007179841663        3.07043606757377
H           -3.32014582506260        1.54523698530322        1.64963127713284
H           -1.37437854145878        1.37848287471301        2.99701670848262
H            1.18056654134861        0.26324880240309        2.23457499389901
H            1.29439175655841        2.63520698404526        2.61539939830265
H            3.04415804815678        2.08082000397662        0.61907834203388
H            4.32690855051916        1.69301207422623        2.55208866358907
