48
 energy: -84.849670885900 gnorm: 0.000760778767 xtb: 6.7.1 (edcfbbe)
C            5.59477098259018       -0.94814114086867        0.15058924871591
O            4.79143809350797        0.17083835142410        0.51530242034036
C            3.46835012627059       -0.12178674618699        0.77522884811057
O            2.83428432128189       -0.50759696380735       -0.42895728817714
C            1.45323926008106       -0.78160031594950       -0.29428614479747
C            0.95827652684082       -1.24923285600324       -1.66981200863813
O            1.45958280585396       -2.51108321951730       -2.01347967482867
C            0.69657489238704        0.46552103851259        0.18315570502766
O           -0.66457530706727        0.11040671368207        0.36417659824701
C           -1.58303538101549        1.17881539927956        0.35924455619636
O           -2.22932831184669        1.29220255234592       -0.87712858090474
C           -2.98375727077205        0.13474646602119       -1.22688477026611
C           -3.56396611191653        0.35550758370631       -2.62090719157848
O           -2.53978851023131        0.16175831027716       -3.56727188680702
C           -4.07861518446177       -0.12739858147099       -0.18154321485533
O           -4.78863011548686       -1.28165504081143       -0.54496698923654
C           -3.42647329742758       -0.27717655304516        1.20153496382392
O           -4.37972057286875       -0.52114618046332        2.20710653347765
C           -2.59180168543500        0.97122938598469        1.49988316941575
O           -1.87861589073917        0.87413897862244        2.70485474018467
C            1.30587492400757        0.90595383406553        1.53652203700627
O            0.72681670159343        2.08271692456364        2.04383543953409
C            2.81652697922884        1.13924756355009        1.37748865069518
O            3.42778030646058        1.50789541004261        2.57787598149736
H            5.27144687444916       -1.35692445277170       -0.80758679727199
H            5.54309459518513       -1.72213569269588        0.92148315692205
H            6.60615718871120       -0.56042449336688        0.07313257436419
H            3.38484669143483       -0.96267591588277        1.50066023378505
H            1.29855168497297       -1.58858816847556        0.43844987336626
H            1.23645385203127       -0.49502886036860       -2.41463976640817
H           -0.12783002917326       -1.34082805519784       -1.64573779706775
H            2.42362792757776       -2.45493093198495       -2.06952258375019
H            0.79160824864315        1.26863055323365       -0.55631751984440
H           -1.06609746484698        2.13595389670087        0.48969890572942
H           -2.31939357725855       -0.73840331761336       -1.26482548687928
H           -3.95752274814017        1.37759260615414       -2.67078156083882
H           -4.37368374375262       -0.36951296061949       -2.76412348680595
H           -2.89124414733507        0.32392638163148       -4.45438352401198
H           -4.75898233244177        0.74284924817597       -0.16488116686117
H           -5.21668878196853       -1.64765840696176        0.24655679753681
H           -2.76625290876872       -1.15100603590772        1.19664979905515
H           -5.00654576146985        0.21756113992714        2.25491784569560
H           -3.25334364403930        1.85335045139697        1.52258733447908
H           -2.43323846390681        0.41569474948344        3.35762874602797
H            1.14848209772224        0.07784635303782        2.24402345962042
H           -0.09040521575862        1.85509453486639        2.51975812925685
H            2.99020648500835        1.97500059983631        0.69353175669645
H            3.23850289506728        0.85361187480836        3.26775099904712
