48
 energy: -84.623384775890 gnorm: 0.000325410293 xtb: 6.7.1 (edcfbbe)
C            5.73752866576488       -0.92043701559554        0.42903776252832
O            4.95749643320265        0.21752090287047        0.79114856702738
C            3.59463680099891       -0.02428809348569        0.85554286818208
O            3.11217457557603       -0.37127444667112       -0.41352764747166
C            1.74658557012539       -0.73756122055264       -0.42547841902218
C            1.50275636681714       -1.18849294575770       -1.85988949409037
O            0.00487653879192       -1.56227595979888       -1.97515867222585
C            0.85877976495914        0.44256888108207        0.09243775734153
O           -0.45835583644315       -0.08426661990549        0.30854118027832
C           -1.50234254740767        0.88396459896622        0.35280611180542
O           -2.19224985264024        0.95814293422069       -0.84575918075282
C           -3.04733612969845       -0.15132111877965       -1.17434503645350
C           -3.49478504392582        0.07038685824979       -2.60924315270860
O           -3.98207781613284        1.52215050961560       -2.72629468385481
C           -4.13357193696448       -0.30864988094812       -0.07296120978662
O           -4.94866950685003       -1.42753915919410       -0.32791680220642
C           -3.44004211032978       -0.53029885380884        1.27125945869054
O           -4.41205789538737       -0.55866399522890        2.29046737448094
C           -2.42608957009750        0.58940326914442        1.55508465258897
O           -1.68867610467174        0.30010364935513        2.71447708068266
C            1.40278775256992        1.06354685763869        1.38854163100787
O            0.76146311959402        2.29758678644133        1.61712492816646
C            2.91873989777414        1.26838794830399        1.32334455071655
O            3.34328325112452        1.66144404761858        2.60231140743562
H            5.43561736656684       -1.28794077739330       -0.55228183325934
H            5.61555848681578       -1.71088757221633        1.17510764200755
H            6.76499442961115       -0.57019939042403        0.40954108669373
H            3.37628001599944       -0.84677838617838        1.57427367958095
H            1.59608074228035       -1.57213500120294        0.28731628269959
H            1.56223711303061       -0.27639482559197       -2.48547987475956
H           -0.48502420658055       -1.13909254114898       -1.23322973276508
H           -0.04168353117888       -2.53739617691830       -1.91591536957667
H            0.81963833935187        1.22668883367811       -0.67512800233525
H           -1.05675237236756        1.87395550102802        0.49393067049023
H           -2.48622521676182       -1.09628401243246       -1.16216763933146
H           -4.54351290062657        1.82698573685650       -1.98205191785511
H           -4.41464269760637       -0.51950948437825       -2.77804609874589
H           -3.15284196870788        2.04076811921057       -2.73688333841659
H           -4.75671315688781        0.59721246242748        0.01460633148944
H           -5.15973082605953       -1.45155564477207       -1.27753895065202
H           -2.91841780809023       -1.50020497702106        1.22475441465855
H           -3.95910869053339       -0.58994450011219        3.14714933146698
H           -2.98816516157823        1.50268396510978        1.77959168639225
H           -1.06170134348662       -0.40890186236146        2.50460237008703
H            1.19456490377588        0.37654310677569        2.22471643199100
H            1.18032035666559        2.71737343892706        2.38465891761046
H            3.14748028344941        2.04294400495931        0.57555851589311
H            4.30927045591797        1.73588005644559        2.60296540882693
