48
 energy: -84.849649409035 gnorm: 0.000914397314 xtb: 6.7.1 (edcfbbe)
C            5.57628875050133       -1.23050859704573        0.52694380864098
O            4.90317362627060       -0.01835622955994        0.86116681673190
C            3.52473970422854       -0.12624080764394        0.91348766673846
O            3.02764041593618       -0.40441742162866       -0.37508099145421
C            1.63471179967535       -0.61128271625049       -0.38409835669492
C            1.22699592755794       -0.96959290773560       -1.81888371685417
O            1.63338723501095       -2.24985455504584       -2.21286804958300
C            0.85823558728275        0.62064848484417        0.11682920654138
O           -0.46945204710305        0.15487762262208        0.32370372644806
C           -1.48213195987318        1.13170677199815        0.37006599258084
O           -2.16196341553648        1.22624971367414       -0.85082826648851
C           -2.82920275789178        0.03744640463226       -1.26316451444182
C           -3.52842050953187        0.34430046598086       -2.59770054763285
O           -2.66581665514145        0.33413453820335       -3.70459642907418
C           -3.84791195098545       -0.41859195820679       -0.20467854267547
O           -4.48951170638237       -1.61511266296970       -0.56405397296257
C           -3.15738361713484       -0.55035606475843        1.15990813301049
O           -4.08252982169957       -0.83708053340757        2.18210006185761
C           -2.45641677892871        0.76728205650096        1.50597920718361
O           -1.73553209880924        0.68132013890776        2.70230084763938
C            1.44504723795700        1.22565880838118        1.41335790290554
O            0.94362858600347        2.52232580223566        1.62934763534882
C            2.97896429509542        1.22324078255826        1.40522846739931
O            3.42503216827858        1.51262750134479        2.70114392436861
H            5.26134962680443       -1.58161696292402       -0.45655435302474
H            5.36834030061011       -1.99636767254239        1.27929027409419
H            6.63302863485078       -0.98132236414726        0.52171347164243
H            3.21462380087050       -0.93455473985610        1.60961411558957
H            1.38517381101320       -1.44236658394692        0.29715611522611
H            1.71863774137829       -0.27561293281333       -2.50265430376928
H            0.14066541074023       -0.85076507121079       -1.90182665313737
H            1.22643529635328       -2.91626365929761       -1.64035111429419
H            0.85964715351863        1.39285399988623       -0.66560018080953
H           -1.06244919014757        2.12235197144689        0.56135204276767
H           -2.08076325151512       -0.75859420715725       -1.40133301652134
H           -3.92826044498067        1.35808734955837       -2.53682185929786
H           -4.35361715755471       -0.36409029373842       -2.72852399633339
H           -2.44388480521151       -0.57647915708662       -3.94308022570733
H           -4.64342693980455        0.33064802108733       -0.12518433835791
H           -3.83243105503405       -2.31698072214781       -0.68648600969365
H           -2.38935692311585       -1.33991088398792        1.11317246883140
H           -4.71879557698765       -1.49102294364571        1.85287306291740
H           -3.21549306569547        1.56275934661768        1.56551360439045
H           -2.33790021828181        0.35673292523136        3.39125538661724
H            1.08743468598610        0.63159165215924        2.26239030588004
H            1.50941842628384        3.17594844889990        1.19051584582280
H            3.33699251702838        1.98091250140344        0.68822283518364
H            4.39470420713063        1.48946133761135        2.71544252088727
