48
 energy: -84.859312760900 gnorm: 0.000364636213 xtb: 6.7.1 (edcfbbe)
C            5.60724767502508       -0.93473933336003        0.29836281178804
O            4.81263486764462        0.18871254253923        0.67298557436563
C            3.46929283272501       -0.09131134797206        0.84384148293378
O            2.90573611666866       -0.46332511741334       -0.39443104394942
C            1.52790745372299       -0.76108679220382       -0.32913928341980
C            1.09945372256849       -1.21565465087326       -1.73317970968032
O            1.55346605957047       -2.49951517036034       -2.05864025404760
C            0.71739777512692        0.46105255930516        0.14062466957222
O           -0.62731564917492        0.04540517471265        0.29942652654308
C           -1.59615824141530        1.07120240081447        0.28819270409097
O           -2.22959859614372        1.16462876242630       -0.95606087498501
C           -2.97091431892464       -0.00043986265884       -1.31932272160902
C           -3.63241821214268        0.28485327203788       -2.67150587486246
O           -2.69834884239272        0.49911982324712       -3.69545476670809
C           -4.02326214824745       -0.35417812064265       -0.26161912322360
O           -4.63732470832555       -1.55480739648631       -0.64553742314441
C           -3.36364768002550       -0.47680685530385        1.11847662600684
O           -4.38129729268750       -0.72313022394628        2.05746442097005
C           -2.60074991440083        0.81495256469676        1.42118748629465
O           -1.96103706165593        0.68469042531996        2.66314241788639
C            1.28752387625472        0.93472318556536        1.49080399915900
O            0.62014842537016        2.09521428714746        1.93039288283568
C            2.79242865802378        1.18334477065596        1.36689469723634
O            3.26292760193935        1.55162617681379        2.63541020875583
H            5.25663588081571       -1.35096565499801       -0.64671108873878
H            5.56749635925446       -1.70043078533018        1.07812296291114
H            6.61764347582615       -0.55115454372129        0.19439373288776
H            3.32608530372871       -0.91695536437856        1.57445546807146
H            1.35588120154688       -1.57210119801913        0.39633250729333
H            1.55649670297327       -0.54397409807906       -2.46213691264661
H            0.00886056648505       -1.14514619392193       -1.80570793596793
H            1.09241233248620       -3.16020907957769       -1.52180398621072
H            0.78844588883084        1.26784813594419       -0.59817449612006
H           -1.11911119130527        2.04774235525594        0.43217060092162
H           -2.28435371002481       -0.85144406702721       -1.42108508720455
H           -4.29501591175420        1.15165036622577       -2.55991076753291
H           -4.22039567988897       -0.58835434046135       -2.95700512094680
H           -2.17982961360807        1.28567470532103       -3.47472741017173
H           -4.76827830539401        0.45635441953832       -0.20886361830366
H           -5.21181983282363       -1.84443359808603        0.08083479754203
H           -2.64158011146529       -1.30689721583801        1.10536721033229
H           -3.99877560733407       -0.66932960052661        2.94547171504038
H           -3.31520967082776        1.65410430534743        1.44009292774392
H           -1.25532551903460        1.34879001577782        2.72544097248958
H            1.12799368665670        0.12934894151804        2.22584712319182
H            1.17756646207251        2.50633813667367        2.61273883842560
H            2.97641098062267        1.98037248938799        0.63101194863358
H            4.22447092005205        1.66455980148293        2.59997021852001
