48
 energy: -84.745207939630 gnorm: 0.000392129221 xtb: 6.7.1 (edcfbbe)
C            5.59514658105061       -1.00011780835272        0.30888549896304
O            4.82028428926233        0.16243026340202        0.59799732765247
C            3.46862224377925       -0.08350342413647        0.77939768359452
O            2.88510634432980       -0.41458201617916       -0.45202920036369
C            1.49915711055084       -0.74130724468647       -0.36796091964617
C            1.09587217264915       -1.28610806194095       -1.71926101887365
O            1.41845720308497       -0.07411254219097       -2.72455095681707
C            0.71382547629499        0.49659270842978        0.15846723465971
O           -0.62663374033106        0.07890004847802        0.36317978261344
C           -1.59094198479716        1.09745109898012        0.40655690499430
O           -2.27126702935875        1.20805686548867       -0.81294349304636
C           -2.98342721735511        0.02350932889029       -1.17193893513397
C           -3.64534482798878        0.31035094840316       -2.52632400330668
O           -4.65460252635175        1.28342658662804       -2.43792503819350
C           -4.01565275986202       -0.35581628653776       -0.09111051635595
O           -4.61393466262116       -1.59433399971526       -0.38404448728721
C           -3.32614849628889       -0.47500406557408        1.28226969369271
O           -4.23366769758041       -0.79930217125674        2.29781620910948
C           -2.56036116255954        0.82544694916981        1.56632588105435
O           -1.87702092094312        0.72778216473351        2.78708116177190
C            1.32530404299406        0.95849415521948        1.49107064548652
O            0.68215030304392        2.12521653486344        1.96227495061594
C            2.82746454145271        1.19549569692656        1.33372536815697
O            3.33713394191736        1.54729351213916        2.59300463095279
H            5.21188889564896       -1.50581070121037       -0.57738959603126
H            5.57410266781763       -1.68703715817361        1.15943887788117
H            6.60462171042226       -0.63883363782863        0.13816253822913
H            3.30912875691170       -0.91449391219620        1.49927373332088
H            1.34339652310739       -1.54875685228196        0.36447048793052
H            2.35819238757520        0.10413015503544       -2.51261112213770
H           -0.00955421992071       -1.29908776874603       -1.72921447088375
H            1.38782639130698       -0.49726470460021       -3.60817995958911
H            0.74851150844768        1.31423034011098       -0.57320452764629
H           -1.11428020195086        2.07577303706814        0.54827250408561
H           -2.27791001362247       -0.81181194265008       -1.27648111536752
H           -2.86512882113488        0.62229971581249       -3.22901658686941
H           -4.11701754325774       -0.60004485090296       -2.89743387462551
H           -4.24866131111343        2.12117269166331       -2.17427522382981
H           -4.77175067710161        0.44050338221902       -0.03366306610129
H           -5.34466052443094       -1.46545331962425       -1.00496997686493
H           -2.61443520472087       -1.30591530100648        1.25450738176665
H           -4.86790254984431       -0.07611928523997        2.41669947016698
H           -3.28015776340040        1.66274735627114        1.60345589475786
H           -1.13885940431036        1.36041203406109        2.78292059404932
H            1.17696476338589        0.14732581222439        2.22277617990884
H            1.25364926588500        2.51017221520915        2.64783906551564
H            2.99980590082477        2.00263774179306        0.60537743966156
H            4.30042424032045        1.63386072607130        2.53402898124389
