48
 energy: -84.842301422348 gnorm: 0.000549422902 xtb: 6.7.1 (edcfbbe)
C            5.40984222755341       -0.98212684942998        0.18272587901372
O            4.74807211305047        0.17132667375911        0.69624656646426
C            3.37755047205053        0.03638882095493        0.81771738776361
O            2.80473410431182       -0.12431919053420       -0.45935166063505
C            1.40924206024087       -0.35725295457382       -0.41475613212316
C            0.92329382921622       -0.63576846053365       -1.82790432319733
O           -1.79766980099757       -2.80131957689867       -1.18852910686967
C            0.66797332982500        0.83507516875380        0.21787646759506
O           -0.67270769537172        0.40363607617347        0.38046131642292
C           -1.64815741102413        1.39693043637936        0.53258329670022
O           -2.31725411331408        1.63048471754178       -0.68293072019416
C           -3.02007026425128        0.54220842311577       -1.19657191186629
C           -2.89308848894614        0.31175082061048       -2.50324890185530
O           -3.63501175233943       -0.60553070461667       -3.18139233174223
C           -3.93417077008296       -0.19652487169755       -0.24656762347406
O           -4.30498481227307       -1.47441585853673       -0.71194666059407
C           -3.25238799068181       -0.39963527751507        1.11631339742652
O           -4.16937510400260       -0.83545656910164        2.09187993729354
C           -2.65132092163537        0.92276282233894        1.59599531463727
O           -1.98971115714958        0.78532888852192        2.82113193092648
C            1.28773798742239        1.24800522802570        1.56067936781895
O            0.78941971767897        2.51724041286894        1.91493316868594
C            2.82542090408309        1.30315965172545        1.48581686811108
O            3.37177660914777        1.54282965312956        2.75404280973213
H            5.07061808783294       -1.19568975981316       -0.83168672969970
H            5.21964174648203       -1.84636424291027        0.82587744170273
H            6.46638427016162       -0.73214976668560        0.18708716127582
H            3.12227337976469       -0.85680539954070        1.43458350228462
H            1.20860807972336       -1.23455007800389        0.22163086490676
H            1.52512609152313       -1.42711824181546       -2.26232820186481
H           -0.11391093466972       -0.95236197394505       -1.78115351170420
H           -1.93911313122504       -3.69746347096329       -1.51108696709389
H            0.70752529375140        1.70023897298460       -0.45832090599957
H           -1.20759823182418        2.35428378225569        0.82385036180459
H            1.01667074544517        0.25829695542834       -2.43621616316609
H           -2.19814076913217        0.91966870109098       -3.06280954203638
H           -4.60811496025911       -1.39598660166144       -1.63231469825476
H           -3.34603555267993       -0.66254780719917       -4.10397305120423
H           -4.83866660293052        0.41521548434037       -0.07500146192671
H           -2.67906237750033       -2.43788189454064       -1.00590414997107
H           -2.43486793103799       -1.12475309533323        0.99669127790501
H           -4.59305559361058       -1.64640444858615        1.77500523014193
H           -3.45231081287127        1.67616808579159        1.67308641337594
H           -2.58001994337695        0.30009795902224        3.42090847528051
H            0.97922811821649        0.50488618637613        2.31426695915354
H            1.28758576785719        2.83693907202754        2.68465343179646
H            3.12313746210084        2.15698924969248        0.86782735241148
H            3.29952666837447        0.75064873328290        3.30718088440860
