48
 energy: -84.857196188792 gnorm: 0.000463324384 xtb: 6.7.1 (edcfbbe)
C            5.65493427521230       -0.83547965945640        0.16306965095420
O            4.87395581904932        0.29822516206462        0.53447567343458
C            3.53951062915334        0.02949416003829        0.75850800073316
O            2.92736901024064       -0.33782136935995       -0.46162477517938
C            1.55554032641054       -0.65309224046344       -0.34114909521692
C            1.07512467471393       -1.07484673968416       -1.73810255864294
O            1.15502704978850       -0.03313694826014       -2.67048014003543
C            0.74531036930199        0.54299961832482        0.18751913565930
O           -0.58489408164168        0.07795183172333        0.37289549322216
C           -1.58426421937686        1.07543285835787        0.42665380250003
O           -2.24616418617585        1.20993384636958       -0.79834316469541
C           -2.92363827117751        0.04583711500936       -1.25573715807353
C           -3.54754439455964        0.40993363702496       -2.60879704954826
O           -4.39278776599570        1.52652250816263       -2.52031767180431
C           -3.98577814413544       -0.40849444000288       -0.24925559283069
O           -4.53181216275084       -1.61519531470068       -0.71685200916703
C           -3.33435625878970       -0.59084095516981        1.12624103529026
O           -4.34474006358168       -0.91026621801528        2.05461243198171
C           -2.58364029503403        0.68394149466943        1.53557646344132
O           -1.95446885608101        0.51037066073939        2.77665463314207
C            1.36353949976914        1.06578501780367        1.49137726394464
O            0.73587063399682        2.26561027432944        1.86511221178712
C            2.87656859249958        1.29587292564057        1.31784106163377
O            3.44330664702980        1.73420807229709        2.52059419092684
H            5.29615703087247       -1.25772704845763       -0.77632627497599
H            5.61840799065681       -1.59572566614692        0.94854114384537
H            6.66732731393675       -0.46071679583662        0.04788032803456
H            3.41877654381596       -0.81153836214972        1.47889899256878
H            1.42275366524479       -1.49578253548317        0.35458395460353
H            1.66881605040417       -1.93743488619321       -2.06238505964655
H            0.02416660635533       -1.36000273491461       -1.67642095469115
H            2.08350112604401        0.22775355436350       -2.76054619124790
H            0.75517536475257        1.34467135645639       -0.56168832572202
H           -1.14716455507593        2.05470524803467        0.63970290613250
H           -2.21031828537767       -0.77636784727146       -1.39812392626645
H           -2.73932485324732        0.59042324350075       -3.32784745814196
H           -4.16181923326152       -0.42620709664042       -2.94524046220350
H           -3.87046816223452        2.26905555498178       -2.18302627949053
H           -4.76415304022406        0.36580872837137       -0.17468059287171
H           -5.17068208707298       -1.93212612841384       -0.06047325000973
H           -2.61046786829353       -1.42025125701459        1.05676774736786
H           -4.00107752548917       -0.76457739594555        2.94943072152388
H           -3.30097760251193        1.50010026356002        1.66538356384648
H           -1.20208064585626       -0.08693601840061        2.64945969576314
H            1.20944271694507        0.30489995126111        2.27660035455457
H            1.29447152865163        2.71358220414801        2.52219981860391
H            3.04090191716979        2.10566483581276        0.59932219507560
H            3.53032718856771        0.99960156693336        3.14624950470177
