48
 energy: -84.740878750319 gnorm: 0.000206856359 xtb: 6.7.1 (edcfbbe)
C            5.79645313180877       -0.55585967384069        0.01373126707835
O            4.92633805976329        0.47599892154331        0.47585884327626
C            3.62816393251309        0.05824129708649        0.71700843639668
O            3.02822543724158       -0.35027997160175       -0.48560210698121
C            1.70073645487223       -0.81161190647499       -0.31700125641194
C            1.29002711834767       -1.44245089364648       -1.64008636270077
O           -0.09643023137273       -2.09546453904134       -1.37218504654968
C            0.82654881925805        0.37742144636579        0.19650948782493
O           -0.52002062955130       -0.07205339782988        0.34736958123315
C           -1.49885077145826        0.95312920200638        0.37170079941097
O           -2.13579693142679        1.09215293088375       -0.86241297591333
C           -2.98601462487019        0.01498388441991       -1.24686215493046
C           -3.64149062752251        0.43834443689650       -2.57384855057722
O           -4.33889940627622       -0.60753798922757       -3.19014276369022
C           -4.03862607846442       -0.27578181283446       -0.16587262214941
O           -4.86173986822777       -1.36310505481758       -0.50881207226290
C           -3.38345178050192       -0.50077068856776        1.20880235897855
O           -4.36641298699334       -0.60218224211305        2.20771769832487
C           -2.47119928027632        0.68238445999171        1.53772774914734
O           -1.75796111947457        0.40439464272205        2.71064545014490
C            1.40321109182959        0.86725463520473        1.53159381281811
O            0.67222766544630        1.96150079182776        2.04455323447716
C            2.87062048162062        1.24749932184081        1.32583630761969
O            3.39175887521583        1.62272926327951        2.57322634475022
H            5.42040598702245       -0.97734049297226       -0.91891801249049
H            5.87901906785306       -1.34178141069747        0.76976842319798
H            6.75703810631743       -0.07431309513457       -0.14167676813119
H            3.61778556185182       -0.79060963155959        1.43779038692474
H            1.69559058178265       -1.57634968047080        0.48361221597340
H            1.02800463613816       -0.61777244285026       -2.33164367402719
H           -0.51473815426987       -1.58185605284987       -0.64022847361409
H            0.08578713708682       -3.01706677470148       -1.09383362280354
H            0.86240675268895        1.18818748968790       -0.54277225858724
H           -1.00969057519031        1.91857072332847        0.53794133091569
H           -2.39112071273851       -0.89075784017016       -1.43267938155054
H           -4.29154414245785        1.30223422803182       -2.38712421078325
H           -2.85358849118454        0.74208734514997       -3.26596704127008
H           -5.04669628118387       -0.90598516626880       -2.59389865174001
H           -4.70985331143564        0.58702645863434       -0.07845817366937
H           -4.32501852198795       -2.16497341419694       -0.60955968539214
H           -2.76683945750422       -1.41335878289896        1.19733171345226
H           -5.06674586001654       -1.19592335132990        1.89070717887138
H           -3.10564542598477        1.57280787920612        1.66825353569037
H           -1.07352745576003        1.08582394379068        2.82394112695523
H            1.35426460338797        0.03724226593848        2.25501576561708
H            1.22825013988310        2.38801276763889        2.71774488986660
H            2.93447717498863        2.07917387532689        0.60728479763677
H            4.33586493889796        1.81684905915467        2.47684836074323
