48
 energy: -84.857876831752 gnorm: 0.000536504182 xtb: 6.7.1 (edcfbbe)
C            5.62916428511212       -0.78148939508271        0.13146106215648
O            4.84025297821691        0.32081031238469        0.57386149541418
C            3.51055792317188        0.02304902988519        0.80651913313004
O            2.88573751471806       -0.32641428505520       -0.41160496916734
C            1.51531706288544       -0.62652998289144       -0.26674675931907
C            1.00354303157036       -1.06053670181670       -1.65473363097231
O           -0.10994678525607       -1.90751344324573       -1.60234454613665
C            0.73056774692169        0.57861920750251        0.28188003897718
O           -0.60691651330970        0.13958789489275        0.43865145530350
C           -1.59287095993432        1.14881154594993        0.50101472251001
O           -2.22947268403096        1.31120697707361       -0.73554179915789
C           -2.87327135109864        0.13676877469494       -1.22439364653573
C           -3.41193622739517        0.44374936249010       -2.62565261276504
O           -2.42832544600938        0.37634968407238       -3.62613836550302
C           -3.99529156201420       -0.27451730388559       -0.26322346098316
O           -4.61334022189219       -1.43481904880963       -0.75402723055973
C           -3.38504000896923       -0.50750707882582        1.12316066406808
O           -4.42655042576888       -0.82541998628978        2.01775079408305
C           -2.61722223345821        0.74094279851103        1.58153351313041
O           -2.01164648270477        0.51798397996531        2.82672147449856
C            1.35455450046565        1.05880065087023        1.60172527607101
O            0.73544890076453        2.25276386082893        2.00436132392374
C            2.86189721059392        1.27599471886450        1.41123309981874
O            3.40270862589081        1.57718869683593        2.66987071289626
H            5.25841775183730       -1.15656305312623       -0.82281985320220
H            5.61277632092941       -1.58069023171619        0.87762676427065
H            6.63516502876171       -0.38848264482071        0.01932165763496
H            3.41301538530980       -0.82563530278328        1.51825267761554
H            1.39063972586534       -1.45783564401592        0.44639157968647
H            1.84319215060619       -1.53010132728663       -2.17930403906184
H            0.69234242558993       -0.17782694928604       -2.21753942893161
H            0.15633787598760       -2.78288217073193       -1.28542582763671
H            0.77230109846274        1.40336184911523       -0.44166380615728
H           -1.14924738145648        2.11803380810237        0.74399312691870
H           -2.14301180490296       -0.68269296779053       -1.28510289621759
H           -3.78604064861456        1.46895546739478       -2.63922188470371
H           -4.23114093553246       -0.25329018789702       -2.83410198516245
H           -2.10662312105246       -0.53473595948803       -3.68636457904189
H           -4.72504602078728        0.54764710095163       -0.19016859613001
H           -5.21877733432780       -1.76426027149745       -0.07177517856334
H           -2.67819622831944       -1.34994595373335        1.05243680468841
H           -4.09737463177201       -0.72240559588460        2.92355835049934
H           -3.32192880813249        1.56633466552909        1.72297505963916
H           -1.25381913890449       -0.06976626683818        2.68815480965465
H            1.21535907272438        0.28313463643281        2.37128996910519
H            1.20599503532097        2.59384316357073        2.78170039457856
H            3.01775597903210        2.10384998879942        0.70407088067443
H            4.35515533871178        1.73074959376436        2.57967730885997
