48
 energy: -84.629756512792 gnorm: 0.000482748129 xtb: 6.7.1 (edcfbbe)
C            5.75482545874195       -0.61042623822063        0.18194717940330
O            4.89210099705858        0.44246947593339        0.60981884114605
C            3.58168755798375        0.05272538754029        0.81460588824680
O            3.02296909063779       -0.38097696037809       -0.39990391306812
C            1.68985884500043       -0.84519951742822       -0.29105714066953
C            1.36941463037291       -1.48681879510585       -1.63410813905226
O           -0.06081655274892       -2.06889271127562       -1.50277006728818
C            0.78756640521237        0.34692201792006        0.16065280607450
O           -0.55974372107209       -0.10547611114662        0.30496795488007
C           -1.54220724415727        0.92187027107564        0.27042033097421
O           -2.16760473860540        1.02186120572719       -0.96217086994712
C           -3.03107265536493       -0.06996262939905       -1.34058211246563
C           -3.56310982815754        0.24840701059811       -2.72012724731601
O           -4.38573012004427        1.62205267757059       -2.51412314246920
C           -4.07714639311678       -0.33110290806867       -0.23029492107922
O           -4.79745939817222       -1.48654973472686       -0.58581218032869
C           -3.39856764187804       -0.51449685715849        1.13178251595210
O           -4.40885767679706       -0.68664329923070        2.10008867853838
C           -2.53228030029111        0.70754201707996        1.42615335654571
O           -1.86956770616357        0.51986019010141        2.65031677471562
C            1.32081027181219        0.86634087712415        1.50393401167303
O            0.57603805115056        1.96783985317285        1.98465257776554
C            2.79851351906804        1.25465356081588        1.35910637181782
O            3.28950501905587        1.75562511049631        2.57263798500558
H            5.40105616614596       -1.02973319010996       -0.76055143362665
H            5.79736758166730       -1.39446144895123        0.94370265118230
H            6.72921208545136       -0.14852268617730        0.05693465464247
H            3.53370991195591       -0.78672268835571        1.54968804935903
H            1.64143973557848       -1.60327373970288        0.51482625151228
H            1.21815892898531       -0.66365497247473       -2.35871192185848
H           -0.54560034016909       -1.53035483749316       -0.83243198070744
H            0.03976673234821       -2.99495056725663       -1.20237248227618
H            0.83579438638600        1.13739314971385       -0.59824989319733
H           -1.04524088077090        1.89040692399785        0.40795736835052
H           -2.45141145983834       -0.99557254747413       -1.45779525796792
H           -3.66815236154192        2.24279709961915       -2.27763186292843
H           -4.38285596480010       -0.47378805118591       -2.89187491896791
H           -4.69137644813040        1.83933260978746       -3.41842545137917
H           -4.75882358315314        0.53196118448624       -0.15427380274521
H           -5.39112310690228       -1.70336658825109        0.14792775852052
H           -2.75169981489594       -1.40457082918023        1.10195121235113
H           -3.99885940541120       -0.67412491219555        2.97692347257404
H           -3.18602844702728        1.59409224651924        1.47688298383278
H           -1.13444764277066        1.15499631842358        2.70561171852127
H            1.23339779089470        0.04233149014536        2.23353817790706
H            1.16795954635659        2.49226307733788        2.55257924247593
H            2.89349732069946        2.06940756268241        0.63278647185826
H            3.54377742124391        1.03147351302506        3.16307454992413
