48
 energy: -84.849315444005 gnorm: 0.000794389718 xtb: 6.7.1 (edcfbbe)
C            5.66526217348993       -0.91742633880710        0.15322552431792
O            4.87602360414392        0.21735647751520        0.50460350833081
C            3.55415721635505       -0.07054253783067        0.77693344889357
O            2.92926052133684       -0.50966968195580       -0.41177429598849
C            1.56024763929701       -0.81493356105585       -0.26785416830654
C            1.06865418944492       -1.35811170708367       -1.61789830402259
O            1.53180466385215       -2.64799101511743       -1.90339147175017
C            0.77472145841428        0.43672509890573        0.15481798199068
O           -0.57882035368060        0.05868627859809        0.35483815029242
C           -1.52248960392160        1.10284156654597        0.30645871257135
O           -2.17519944367356        1.14609158399767       -0.93270668357610
C           -2.95493671439679       -0.00917074370414       -1.22714212789377
C           -3.61660390361139        0.27770958915505       -2.57862563990040
O           -4.30119558503011       -0.87428079876722       -3.01299920077241
C           -3.99459631861382       -0.30830724481632       -0.12885750654565
O           -4.65104329901615       -1.52856830226027       -0.34991705325215
C           -3.29697930384177       -0.37894404720420        1.23604281455827
O           -4.17088333009546       -0.61852634349966        2.30944746035443
C           -2.51909521713272        0.92526693597201        1.45750131246210
O           -1.80783620833187        0.92105382424213        2.66692248666980
C            1.37413517594972        0.95724119229501        1.48419580006704
O            0.77200106975887        2.15063403195015        1.92187399256997
C            2.88331163459788        1.20754881898680        1.31999966936370
O            3.48133520360156        1.64413294818248        2.50371454788106
H            5.26787810047464       -1.39590192402963       -0.74325095059029
H            5.68530059180315       -1.63438141382746        0.97926919094017
H            6.66127785241720       -0.52729802704504       -0.03216031038591
H            3.47639826737782       -0.88058993674906        1.53800776462254
H            1.42676621477678       -1.58055666592569        0.51381550914525
H            1.46215359446996       -0.71610417863310       -2.40783961882099
H           -0.02640136940010       -1.31750226714955       -1.62337174303520
H            1.16041433349876       -3.27958996368388       -1.27027343204900
H            0.85144887882626        1.20808815255444       -0.61961212483586
H           -1.02661501854663        2.07658024451544        0.38577324764528
H           -2.30292183232868       -0.88965833605051       -1.31843262614813
H           -4.30357174913838        1.12428141060231       -2.45634326992569
H           -2.82574805247846        0.56508106863142       -3.27962001968480
H           -4.66421401484731       -0.72128060821543       -3.89700916517988
H           -4.72683228809239        0.51994742790044       -0.10600787569946
H           -4.83956385349384       -1.61387417313853       -1.30211400496019
H           -2.58826184675172       -1.21457166915261        1.23205918725337
H           -5.01802918808297       -0.17521156806506        2.15922533182948
H           -3.21752859316278        1.77745436185041        1.43444845947885
H           -2.34567217349264        0.45360053237024        3.32872428302974
H            1.22660760317188        0.16710804407538        2.23541573439140
H           -0.03131457315354        1.93702069209322        2.42645583450531
H            3.04555423741503        2.01280373101187        0.59769949464778
H            3.32278561970271        1.00852406353936        3.21831517444007
