48
 energy: -84.739631643178 gnorm: 0.000281689979 xtb: 6.7.1 (edcfbbe)
C            5.76735572451739       -0.72281680889109        0.08856556925141
O            4.95900358237538        0.36140921747700        0.54308287394556
C            3.63385694318050        0.02952066611653        0.75880366797270
O            3.04636645544654       -0.37340625998380       -0.45304756106638
C            1.70561610268208       -0.79695900304862       -0.30547103213780
C            1.31007000215224       -1.46033913945098       -1.61734069368627
O           -0.08747485385689       -2.09643679203597       -1.34701423801862
C            0.84275833056356        0.41808196735721        0.15679240793649
O           -0.50157777997096       -0.04394647404634        0.32654059067227
C           -1.49601462753709        0.96124498944072        0.31981786918639
O           -2.13782550873991        1.06212628022099       -0.91775183062212
C           -2.96032141028172       -0.03360046644044       -1.30847984556590
C           -3.61472146927254        0.38159792503034       -2.63895756895072
O           -4.28833099266995       -0.67554259594575       -3.26287137176711
C           -4.01274874077703       -0.35545132167072       -0.23570474449537
O           -4.80781865688244       -1.46277689272579       -0.57934910375850
C           -3.33162404350621       -0.56249868210574        1.12412199122654
O           -4.27497503334620       -0.73762363894342        2.15461655031560
C           -2.49382197860296        0.67606318585695        1.45801602881480
O           -1.77472455779871        0.51447630369094        2.64788937290435
C            1.40276998820814        1.02465826318406        1.44641942299878
O            0.76276905925124        2.25120296425381        1.71868818490410
C            2.91884840635271        1.26719925006527        1.31892687294815
O            3.44676319623286        1.70560693945768        2.54164237874833
H            5.38762117558010       -1.10635878353429       -0.85921843857864
H            5.77894697047922       -1.52259050955705        0.83475135760951
H            6.76150008005643       -0.30493437705887       -0.03608249136314
H            3.55560939121099       -0.81195726300405        1.48875749971545
H            1.66612695789267       -1.53989456937539        0.51647887576071
H            1.06266685826070       -0.65382128012720       -2.33519381660622
H           -0.49653775308386       -1.55895874587218       -0.62613670711259
H            0.09106268449783       -3.01227057616415       -1.04774081665766
H            0.86594124046657        1.18366628741226       -0.63125095266587
H           -1.03413625116493        1.93686965441766        0.48876312723029
H           -2.34513940887739       -0.92560272771223       -1.49613602095370
H           -4.28068896983585        1.23372603563562       -2.45555239403181
H           -2.82680458104629        0.70143344826495       -3.32361343317942
H           -5.00553644754148       -0.97865182876327       -2.68090516866945
H           -4.70553517437140        0.48968298341069       -0.14519361090717
H           -4.24730631862670       -2.24074850726982       -0.72644658542796
H           -2.66183022161538       -1.43640246651742        1.08352695132960
H           -4.98929519263144       -1.30906012420417        1.83167198583372
H           -3.17004790992564        1.54206833668363        1.52767824173068
H           -2.40579917336380        0.26922062565786        3.34357491502950
H            1.20445224272627        0.31819928583071        2.26982427058224
H            1.25196637391006        2.69430615023806        2.43092687117893
H            3.08502822572871        2.08611259751576        0.61002609063586
H            3.53890909253395        0.96092547257044        3.15463060005072
