48
 energy: -84.740167146263 gnorm: 0.000682173471 xtb: 6.7.1 (edcfbbe)
C            5.59270095702877       -0.85277718437529        0.23851528509769
O            4.82286469978948        0.28218914633322        0.62915108595538
C            3.47560029655783        0.02985357828938        0.80792911225923
O            2.88488952244937       -0.28859209543799       -0.43488857837262
C            1.50728222132341       -0.57975947173480       -0.33660178940333
C            1.03230343515287       -1.00265067978378       -1.73378167591912
O            0.10700083969460       -2.05620541653178       -1.61130376828850
C            0.71483020391637        0.61881577211701        0.21507629156864
O           -0.60917243488936        0.16450977745719        0.40034221121891
C           -1.60899177317199        1.15310745248858        0.47036834466746
O           -2.27633343075540        1.27729581317921       -0.74739863636709
C           -2.87111137460586        0.04648886428336       -1.20473442044574
C           -3.31618777874054        0.26878371810763       -2.63992890436334
O           -4.19013464871716        1.54025534347399       -2.64830955554183
C           -3.93725852394139       -0.38009737156327       -0.15922326172302
O           -4.59066500626664       -1.57716085984877       -0.51906078978510
C           -3.30564241090418       -0.51549406655082        1.23748305449350
O           -4.29866332692419       -0.77763308800050        2.20402176460648
C           -2.58298386766602        0.77999852427047        1.60815395831552
O           -1.90055546729421        0.60341415407010        2.81971265513580
C            1.33102790400525        1.07901659759725        1.54816991815460
O            0.70495646076927        2.26063273544801        1.98957784145526
C            2.83619958587737        1.30110756211283        1.38008762525045
O            3.35772657479055        1.63733261749583        2.63779150598607
H            5.24659464635700       -1.23556657951371       -0.72194730882604
H            5.52007057602144       -1.63674324949901        0.99744926477594
H            6.61458295102497       -0.49416545985834        0.15965031222137
H            3.31839763561636       -0.81638434860043        1.51091525768829
H            1.34443152239565       -1.42682314031089        0.34806170703409
H            0.57612377423609       -0.14870647109212       -2.24788411983352
H            1.92316255511523       -1.32368745233933       -2.28605902745258
H           -0.10774074133054       -2.37804822718961       -2.49952941244039
H            0.74209851040215        1.45033775229644       -0.50173198856421
H           -1.16903890209076        2.13751421957606        0.66921191638963
H           -2.10260349150832       -0.74091377798299       -1.21994472814367
H           -4.93803173577290        1.52111717231172       -2.01312128392220
H           -4.03594030189360       -0.53535843666523       -2.87975698334253
H           -3.55798567388111        2.23913468350952       -2.38447879601062
H           -4.73534461938036        0.36981575160856       -0.08431327172921
H           -3.92695172556294       -2.24286174545996       -0.74850498324892
H           -2.55666450520980       -1.32327885633978        1.22892485461128
H           -4.86898699913054       -1.48366600064338        1.85932213132090
H           -3.33538884805584        1.57970625466604        1.70296977361906
H           -1.37507578979244        1.39838323270953        2.99903381783577
H            1.17146611581369        0.28152641829775        2.29158678985596
H            1.27326002857517        2.64913402785814        2.67556134984150
H            3.00684646998725        2.11045837182709        0.65417993784817
H            4.31960390113267        1.73369044876715        2.56849458125034
