48
 energy: -84.850129487467 gnorm: 0.000585615739 xtb: 6.7.1 (edcfbbe)
C            5.63725444410386       -1.03734688741063        0.28039821085315
O            4.92360356313267        0.14926203792105        0.62170584722853
C            3.56388882463075       -0.02951415968827        0.77883839072834
O            2.99207721084164       -0.38525474207555       -0.46270064771860
C            1.61355578389629       -0.66817701610951       -0.38584809235632
C            1.16940902997316       -1.12970690120160       -1.77546642143531
O            1.40902782121154       -2.51115387711756       -1.88533649019643
C            0.80821806281541        0.55267377454073        0.09455210876279
O           -0.51350656383713        0.08394877144127        0.32322364049115
C           -1.53241406241469        1.06207506305936        0.34720686680284
O           -2.21316526082824        1.11189624196731       -0.87797772359664
C           -2.85934297856408       -0.10075169966204       -1.24198541274798
C           -3.50381671157404        0.13765955694218       -2.61782371596735
O           -3.97066164732424       -1.04411410611380       -3.20919161695843
C           -3.89480645050087       -0.50056465306363       -0.18039891479693
O           -4.54911588261225       -1.70526855006557       -0.49760612168408
C           -3.21659408199792       -0.59555085178108        1.19483120824289
O           -4.15510004522212       -0.86415499978569        2.20672798626430
C           -2.49792311292396        0.72255040302940        1.50986544033059
O           -1.82545072969962        0.69052680127837        2.73439311646807
C            1.41780249306261        1.15282139318720        1.37019531744955
O            0.84027246980421        2.41520450531929        1.59506010814007
C            2.94879301290586        1.29074494366648        1.26254512737442
O            3.48220474313858        1.74586744345214        2.47435570264455
H            5.27914600806380       -1.43772399352894       -0.66888652505209
H            5.51981834374785       -1.78936216170128        1.06597980053960
H            6.67645863952980       -0.73398343139011        0.19936506793277
H            3.35337512511144       -0.84179089408843        1.51168901447398
H            1.44103946174948       -1.49342251995775        0.32325374562464
H            1.74737248118790       -0.56327769294461       -2.51370145603881
H            0.10207244399815       -0.90957238100886       -1.89505913036959
H            1.23831372993233       -2.79722495752433       -2.79456455128158
H            0.80425180757723        1.32497307004914       -0.68545111560625
H           -1.11224867103155        2.05962554941096        0.49812624025477
H           -2.11248401745233       -0.90574136918625       -1.32797545488143
H           -4.30486639206850        0.87822840152347       -2.50764009811353
H           -2.74541541529195        0.54645865341183       -3.28839757346329
H           -4.67972375661017       -1.41192396138634       -2.65580739853635
H           -4.68053721283010        0.26187930285371       -0.13243541453695
H           -3.89723932880020       -2.42038649507663       -0.56023667571653
H           -2.45779559236215       -1.39836100380143        1.16346581429657
H           -4.80528327164593       -1.49990978240314        1.86582599111107
H           -3.23615921218546        1.52518560270161        1.59555599978418
H           -1.26730880836017       -0.10015418909963        2.76348337624448
H            1.18025973138233        0.47993108727611        2.21088187474286
H            1.35147897702535        2.86970478289000        2.28498478433626
H            3.19170351581911        2.05948033688104        0.52151779362630
H            3.48482849148415        1.03641456324487        3.13418199913051
