48
 energy: -84.743683541912 gnorm: 0.000496393755 xtb: 6.7.1 (edcfbbe)
C            5.57917348289009       -1.10079477077260        0.39098328423523
O            4.82889626141917        0.07573850397219        0.68720751438292
C            3.47202481916598       -0.14011714101514        0.84810038483542
O            2.90425400751551       -0.46093148850344       -0.39565511862027
C            1.51160838777707       -0.76641160968769       -0.34773940181016
C            1.13345873321566       -1.31017630963604       -1.70698428924437
O            1.48885448872911       -0.10297136485144       -2.70381814158459
C            0.73652050390013        0.48815523121039        0.14990705904751
O           -0.62184627680567        0.10671408919351        0.30481707381324
C           -1.55774990527068        1.15535035057878        0.31366795298882
O           -2.18852423069199        1.28884007036182       -0.92841074588408
C           -2.94423630544328        0.14686088447640       -1.31796471323577
C           -3.61981984309667        0.47356518359052       -2.65012045943846
O           -4.59064864437890        1.47446324730179       -2.45174254910214
C           -3.98123294609439       -0.24079726363798       -0.25689930453077
O           -4.57544408305353       -1.45186462550232       -0.65218340736441
C           -3.32043515697869       -0.38485522328391        1.12553397613372
O           -4.27817417038653       -0.74359841308972        2.08958553795214
C           -2.56823668665599        0.90732931573702        1.44521588966396
O           -1.93015202213273        0.80893719817094        2.69070960558385
C            1.31438799958484        0.92846061329711        1.50326911213755
O            0.68631296824166        2.10531044587790        1.97127611736495
C            2.83054538566513        1.14170553908916        1.39778972655870
O            3.35565771147797        1.55685665786029        2.62897749354394
H            5.21260171812912       -1.57057075562453       -0.52219625438606
H            5.51173546072824       -1.81136862968812        1.21989970413643
H            6.60343226534705       -0.76365435908928        0.26513616118625
H            3.28614777275826       -0.97977515559989        1.55608640020967
H            1.32397135996905       -1.56938954137903        0.38241722192249
H            2.42620650321974        0.06580334052125       -2.47447989036803
H            0.02775647859060       -1.31212719343228       -1.73970699789553
H            1.46652266573849       -0.52140706515787       -3.58943246380610
H            0.81920129855696        1.30415940747155       -0.57906321484506
H           -1.05718637529145        2.11859267826962        0.47314459989891
H           -2.26862316961782       -0.70898221145072       -1.45970136857537
H           -2.84652000355478        0.81764838972927       -3.34598558463457
H           -4.07879142189394       -0.45079156011807       -3.01852482533210
H           -5.00221957959187        1.68158533528796       -3.30301660157397
H           -4.73996948361308        0.55762875314901       -0.21070628047132
H           -5.02200497979394       -1.83060653195561        0.12222506150845
H           -2.59935134046946       -1.20951456282477        1.09864845279338
H           -4.76576802693932        0.04161338965368        2.37843333302490
H           -3.28058466600268        1.75118938601462        1.44507780864560
H           -1.18344609221751        1.43125112470034        2.71179865643022
H            1.11386150313923        0.11276651181839        2.21985586282473
H            1.31163045861081        2.55110339217879        2.56954619296800
H            3.04251930283576        1.95606977267989        0.69669735523875
H            3.41328296552924        0.81005309761172        3.24288200382263
