48
 energy: -84.736679238010 gnorm: 0.000463030482 xtb: 6.7.1 (edcfbbe)
C            5.62798992773688       -0.72798544807592       -0.08600126704577
O            4.87326493482517        0.35412042273711        0.45687237564389
C            3.55089114769559        0.04400581447955        0.72544405171384
O            2.89847774053920       -0.30879076215926       -0.46527337802934
C            1.54414432354096       -0.69382732582295       -0.25798135743574
C            1.02592140148194       -1.33710418275510       -1.52645554860088
O            0.16612051241078       -2.53124655229376       -1.02710137478686
C            0.75944470847332        0.53881829523868        0.26125868488095
O           -0.58974567015686        0.11834390676996        0.43293931447583
C           -1.55221161084405        1.13787513915127        0.48221957215914
O           -2.20738710661032        1.30056715238490       -0.75054570528727
C           -2.87375243378408        0.13802251645847       -1.22127706542192
C           -3.56087534771947        0.54423741553478       -2.53703651971788
O           -4.18139647530005       -0.54407105698984       -3.17367569726003
C           -3.89980002496843       -0.41249556848794       -0.21032017572429
O           -4.36041305530276       -1.67685069902860       -0.60918690997288
C           -3.26770932524245       -0.54389808173684        1.18019304166780
O           -4.18177877806988       -0.93491553624741        2.17237531092932
C           -2.58804577169508        0.78049894482233        1.56298825822703
O           -1.95859454740537        0.68835347278965        2.80941744759033
C            1.38200275659370        1.07385829698060        1.55201226235134
O            0.78955948575736        2.30499719678810        1.90106227467523
C            2.89744664970525        1.27819183920127        1.36468015833250
O            3.49496304640811        1.65305615297950        2.57718944057025
H            5.18518079791141       -1.06272336501883       -1.02448826709418
H            5.66156588547997       -1.55825839621919        0.62534030188623
H            6.62337104223168       -0.32709649168527       -0.24991759325328
H            3.48891406636335       -0.81756459995672        1.43475153929428
H            1.52934565171202       -1.45156426291434        0.54852637490280
H            0.29940125444880       -0.64046408069012       -1.98829682428245
H            0.03188591542393       -3.11043045913766       -1.80638187236373
H           -0.69055951219775       -2.27212873608106       -0.63019436446387
H            0.80401571490688        1.32908817866302       -0.50259246173497
H           -1.09292406267535        2.10325016086043        0.70743315846093
H           -2.13289646146634       -0.65024539005599       -1.41599017024366
H           -4.34418416045999        1.27143685194126       -2.30923016766236
H           -2.82053169035817        1.03226612779378       -3.17587382523331
H           -3.53714899702299       -1.02572498551694       -3.71173502246526
H           -4.73623160232578        0.30390062592183       -0.14047229178246
H           -4.72663544915762       -1.60133443435232       -1.50961707869860
H           -2.50574096098212       -1.32961490608916        1.16614036031603
H           -5.01323703813690       -0.44894874380863        2.07232826420780
H           -3.33894691497393        1.58925025438108        1.57351299384466
H           -2.52438241326887        0.14576297590862        3.38600813922854
H            1.19850974653373        0.33814528885912        2.35301353587652
H            1.32470405189180        2.70749647299524        2.60460232955637
H            3.05494493385306        2.12007313630956        0.68121849666404
H            3.59846974880918        0.88143643669329        3.15396939654657
