48
 energy: -84.855125912126 gnorm: 0.000332114018 xtb: 6.7.1 (edcfbbe)
C            5.66933602853727       -0.90672021330802        0.23159661964127
O            4.88470831618639        0.22655472501419        0.59835656885980
C            3.54043375042736       -0.04413362574901        0.77516218926242
O            2.96531047743687       -0.39880135620929       -0.46348080478112
C            1.59269641498857       -0.71147963847123       -0.37341203077127
C            1.14303808680258       -1.18312464549473       -1.75628117875503
O            1.57352111112503       -2.50912514841065       -1.93636567710283
C            0.78183799337581        0.50606894675217        0.10612526131813
O           -0.55867733980837        0.08573934719135        0.27820840078052
C           -1.53142313100827        1.11035983428310        0.27678216449603
O           -2.17160286120406        1.19672265284837       -0.96309016750459
C           -2.92858474859062        0.04397762472578       -1.31754454530704
C           -3.63151363983274        0.34693004841976       -2.64166670752681
O           -4.60231180713401        1.34628150814102       -2.43883198225643
C           -3.94616393825726       -0.34860144626874       -0.23830967639686
O           -4.50825679287388       -1.57853963217434       -0.62017759795479
C           -3.26267135114134       -0.45381308279658        1.12972913092006
O           -4.25639049986904       -0.72578505917662        2.08782038526041
C           -2.52440965018526        0.85384165969178        1.41789356056285
O           -1.87782528118832        0.74982668787409        2.65948561619295
C            1.36696582754478        0.98058644049429        1.44938778769314
O            0.70534076610236        2.14160574320756        1.89564050742319
C            2.87134052680806        1.22863214248290        1.31258993704112
O            3.35369166564423        1.58944361043245        2.57874570229098
H            5.31028415017401       -1.33021338174937       -0.70693199018326
H            5.62565105156515       -1.66486899734368        1.01851764493747
H            6.68241914957426       -0.53245517532939        0.11995653494723
H            3.39414148880743       -0.87650516385761        1.49663753060066
H            1.43907627282707       -1.53347549576361        0.34175636151235
H            1.59009541732026       -0.51626353381836       -2.50232275274274
H            0.04961022711130       -1.11417896037820       -1.80081248133770
H            1.35503001341477       -2.79927496499249       -2.83396733374815
H            0.84016310628030        1.31341194296488       -0.63426475482819
H           -1.05491520682428        2.08829826437582        0.41243576116967
H           -2.25124945378283       -0.81040132463038       -1.46048360338403
H           -2.87338126481918        0.68289365491352       -3.35837362816788
H           -4.09416399283430       -0.58468548480887       -2.98741743778160
H           -5.03046555081464        1.54279578347060       -3.28422948776370
H           -4.72092030657520        0.43032478039564       -0.18099139201336
H           -5.08387221199817       -1.87812886611934        0.10038979731823
H           -2.52087386839760       -1.26691189241558        1.10347112314469
H           -3.85827438820474       -0.65146095695596        2.96761122738543
H           -3.25210938813175        1.68137110823704        1.42708681076741
H           -1.17364498934149        1.41686736040221        2.70470842195632
H            1.21397735663065        0.17410424190459        2.18455253490553
H            1.26598065474838        2.54716660594001        2.57899329789559
H            3.04870716550672        2.03017649184003        0.58002754790675
H            4.31477964886797        1.70529385614590        2.53487882757749
