48
 energy: -84.744675908467 gnorm: 0.000582429360 xtb: 6.7.1 (edcfbbe)
C            5.59884928916834       -0.94131657488837        0.36603088329247
O            4.82579498950274        0.22234015463868        0.65119445903579
C            3.47242274072938       -0.00680631383654        0.79125646698735
O            2.93260098221167       -0.37088195706811       -0.46305582391559
C            1.54576840108467       -0.64494782943884       -0.45328377069143
C            1.17067106602168       -0.98174055502785       -1.90575402685904
O            1.48559558507126        0.06554162752121       -2.77946385807276
C            0.71621799254615        0.54658474459051        0.05335528415726
O           -0.60350862912383        0.06508577083226        0.24897022920560
C           -1.61674796024283        1.04683332346075        0.27716981194144
O           -2.29406391632424        1.12982385239844       -0.93614184433082
C           -2.97412685469579       -0.07742668495642       -1.32563387804535
C           -3.51834382961642        0.14703952727248       -2.71925661420865
O           -4.47100671832166        1.43987437488150       -2.54366689800175
C           -3.99403173129269       -0.46561672832243       -0.22536134213379
O           -4.58367204562624       -1.69259820015211       -0.58418514338307
C           -3.29882286269778       -0.57485189900265        1.13599426332372
O           -4.27987279067507       -0.86952190720196        2.10584255618612
C           -2.57486057337879        0.73572660345006        1.43837618284222
O           -1.89474955651623        0.61459149808202        2.66173063125593
C            1.28950133876979        1.03358559345442        1.39626667144140
O            0.62899917825709        2.19981036736759        1.83306777229688
C            2.80066541157662        1.28069055594552        1.28632790396964
O            3.30833375399059        1.75561681127954        2.50148618373471
H            5.28928766935361       -1.38641692856281       -0.58014799806964
H            5.49237557613766       -1.67461679273292        1.17060735358460
H            6.62595761304232       -0.59504154991161        0.30457611258613
H            3.28171800332346       -0.83345107901153        1.51254391815977
H            1.32915939208899       -1.50586992496279        0.19631176987786
H            1.68627099327739       -1.90384801219966       -2.19873807619791
H            0.09187889583878       -1.13140919009728       -1.96996305052041
H            2.44008922366877        0.22626016087245       -2.73083979470330
H            0.72793625434001        1.35360242010089       -0.68846535795626
H           -1.17482174335291        2.04073360860347        0.42391890252849
H           -2.25140557237302       -0.90352873157184       -1.39688932860993
H           -3.82762186568969        2.09491404541800       -2.20466641169755
H           -4.26377919231919       -0.65522398257749       -2.88137304190781
H           -4.69167290121366        1.68068340916935       -3.46678683323546
H           -4.76991883528036        0.31497998982813       -0.15210912057063
H           -5.12342003769087       -1.98989059110705        0.16377925106693
H           -2.54959967253787       -1.38045757547347        1.09214970753071
H           -3.86834811065415       -0.81430544309515        2.98097692209727
H           -3.32045584362905        1.54579830179276        1.49333729847024
H           -1.26263189862417        1.34669733116018        2.74082085743686
H            1.10973131156443        0.22908238562688        2.13121152194742
H            1.25527798919551        2.70538575583755        2.38086461149109
H            2.99761088133960        2.06857590579400        0.55198428649664
H            3.37563461353916        1.03828933717426        3.14926040902058
