48
 energy: -84.740988936578 gnorm: 0.000444015788 xtb: 6.7.1 (edcfbbe)
C            5.80204889243593       -0.71604938047161        0.16834808989906
O            4.90847285975084        0.35919401046568        0.44203190090442
C            3.62170645160581       -0.02087596897483        0.76413608899248
O            2.98569831623696       -0.49690759198416       -0.40626997263783
C            1.61550160912721       -0.81437521599540       -0.25113584475075
C            1.12774810335761       -1.36946849805333       -1.59687486194312
O            1.59440861640171       -2.66732176805138       -1.84402906691142
C            0.81924096501415        0.42991868830867        0.16874908157242
O           -0.53591089195840        0.05628570538820        0.34181920292780
C           -1.47523825981018        1.10774809175861        0.28483716751950
O           -2.10586958265884        1.17049137605999       -0.95465794186033
C           -2.84701345492399       -0.01330877641463       -1.30796385436939
C           -3.28012056336708        0.14754336385834       -2.75400697088880
O           -3.97656581057194        1.51573738511115       -2.87588978628396
C           -3.94466066850367       -0.25151435104622       -0.22117513052552
O           -4.76201917430276       -1.35563190677402       -0.52182364103293
C           -3.27132478246208       -0.37998096297163        1.15166107486057
O           -4.16643247450662       -0.65213889557960        2.20793760757179
C           -2.49084724036764        0.91326271442164        1.42087097126508
O           -1.79651709577795        0.88467943648029        2.64091505421337
C            1.40888369873811        0.91623158534997        1.50968548165513
O            0.80707013050156        2.08938010583400        2.00674803503120
C            2.90628462369674        1.20463313866189        1.34601961049733
O            3.49707430690537        1.48851563661058        2.58401466768673
H            5.49712020172895       -1.24860082819150       -0.73332690950057
H            5.83629998748592       -1.40627337330628        1.01579779454608
H            6.77257538703186       -0.25120777223031        0.02221773874924
H            3.62325016028712       -0.82375260026502        1.53161318678605
H            1.49149077140896       -1.58596946436466        0.52442157236122
H            1.43554152215029       -0.67780542088086       -2.38867773260358
H            0.03924686198333       -1.43174120121602       -1.57792960131198
H            2.55785113510873       -2.64249411623785       -1.92945906397762
H            0.91133162121003        1.20852476199668       -0.59739440813759
H           -0.97552130157153        2.07751989007279        0.39449335174886
H           -2.17696452243686       -0.88594559664074       -1.27621828305555
H           -4.72277018592566        1.65994080641633       -2.25468845906725
H           -4.09766150801502       -0.57421142085726       -2.93024406961865
H           -3.25397392619606        2.14663462153224       -2.68118637052910
H           -4.63353935267565        0.60327031128193       -0.18649630905893
H           -4.21975533953980       -2.15060951666901       -0.61687918817468
H           -2.55474568831470       -1.21091886173352        1.13886583930586
H           -5.03109439954770       -0.25859568261281        2.02231649374033
H           -3.18535387415553        1.76972733112410        1.41128322378222
H           -2.34425869689467        0.41065304012979        3.28821520922252
H            1.28969965222660        0.10097414774012        2.23766642382027
H           -0.02779286587308        1.85425295844465        2.44789049769240
H            3.04333952678574        2.04139490952831        0.64628367440517
H            3.02122627082538        2.23839117850374        2.97676546138243
