48
 energy: -84.853081088424 gnorm: 0.000350382827 xtb: 6.7.1 (edcfbbe)
C            5.63184845643963       -0.98437491625995        0.42427042237306
O            4.89336109654824        0.18245254798775        0.78046417358520
C            3.52714705643242       -0.01316441390348        0.88445163879554
O            3.00066266736037       -0.33148927609918       -0.38349291419657
C            1.61850263872528       -0.60569064280305       -0.34882084094553
C            1.20987762729285       -1.04353811369364       -1.75587605265596
O            1.54588470660004       -2.39935295856191       -1.91764631430020
C            0.80977357536743        0.61384882688665        0.12806742747251
O           -0.51606788041135        0.15019174535795        0.32292074632133
C           -1.52766447765431        1.12628047543111        0.33736152862445
O           -2.18922389466973        1.19117992908320       -0.89728178612118
C           -2.82627210239619       -0.02806053283248       -1.28227749062967
C           -3.41498449514673        0.22449615428489       -2.67664960995065
O           -2.42739092936854        0.59074184365073       -3.60433526779233
C           -3.89649383109690       -0.44200034497234       -0.25233827482345
O           -4.45633406264860       -1.69505868129715       -0.55169405013409
C           -3.23025844213286       -0.53990923573124        1.12753506718982
O           -4.12236007681464       -0.88684179671980        2.15510064071435
C           -2.53172822219871        0.78948038035603        1.45252320695246
O           -1.86522880912315        0.73459513683776        2.68217786780073
C            1.38102701837608        1.19901035814447        1.43023923554483
O            0.82740568577705        2.47928588797711        1.61695665874760
C            2.91227475463231        1.29867154579418        1.38746049362708
O            3.34828696602442        1.61708319292562        2.68260277034991
H            5.29478403625964       -1.36830093340564       -0.53917719364249
H            5.51168141481293       -1.75492421357447        1.19081008150149
H            6.66738474021744       -0.66284249114524        0.36671741122810
H            3.29455302675554       -0.83636457174127        1.59360010161428
H            1.41931016007691       -1.43571555989444        0.34697442663626
H            1.75009095892799       -0.41448951787826       -2.47239497437148
H            0.13033123063056       -0.89298311594059       -1.86876935714776
H            1.34707543274640       -2.67137522112166       -2.82558147949965
H            0.83140901890840        1.39795467158594       -0.64063445406365
H           -1.10649007658870        2.12176314996210        0.50628884872417
H           -2.07569546255520       -0.82825424498931       -1.33578056369603
H           -4.18025613100726        1.00765719162702       -2.60182910304637
H           -3.85747528930068       -0.69530924035690       -3.06050452487400
H           -2.00115199092261        1.39874660168745       -3.28558906860925
H           -4.67064904066961        0.33984215879133       -0.21383594403859
H           -5.12560036097645       -1.61307717886752       -1.24477554488323
H           -2.48136934746384       -1.33827025284047        1.10427909542887
H           -4.92574059488013       -0.34858281271852        2.09445917872876
H           -3.28423949927397        1.59768253378847        1.46875457869706
H           -2.38736120423280        0.17039126506631        3.27790706718840
H            1.09116502779957        0.53722998536218        2.25987483999344
H            1.18687426765612        2.84816507527806        2.43906627637515
H            3.19506138612293        2.08594494284373        0.67225719667503
H            4.31649727986746        1.66369867087336        2.68912183582570
