48
 energy: -84.854223715891 gnorm: 0.000670580112 xtb: 6.7.1 (edcfbbe)
C            5.70461641610118       -0.88374347908351        0.17277965909984
O            4.92553420164723        0.23595824002206        0.58675925602061
C            3.58609024318325       -0.03906511478831        0.78961640675440
O            2.98167266621208       -0.39380034192527       -0.43475136550906
C            1.61066700628267       -0.69525587465500       -0.30165870867630
C            1.09129845662561       -1.17927704909959       -1.67000601294888
O            0.96575873223697       -0.17316714836773       -2.63668615637491
C            0.81925102810510        0.51699653029414        0.21871031083274
O           -0.52213868054884        0.07598759865940        0.37130661379164
C           -1.50862090582286        1.08786953169510        0.40921493670992
O           -2.13032234963257        1.22303192349102       -0.83832716333761
C           -2.81217730033091        0.06091515570757       -1.29777503622294
C           -3.35784659545745        0.37210561089196       -2.69789257387982
O           -2.37575159249705        0.28629623744403       -3.69793226732729
C           -3.93047136106040       -0.32374170063869       -0.32317887821976
O           -4.55297489531563       -1.48839180387135       -0.79843646408177
C           -3.31666563271500       -0.54000198641197        1.06468737254089
O           -4.35859599989178       -0.83187955046931        1.96582964124651
C           -2.53817366446261        0.71193579468242        1.49512553723137
O           -1.93788456805446        0.51552286829621        2.74625290506039
C            1.42752626586314        1.02045385406560        1.53490316813453
O            0.80448202606600        2.22348361708399        1.90386313156185
C            2.93818949094443        1.22937440525667        1.36235663046005
O            3.45922602532384        1.55382320942582        2.62353115752611
H            5.35327384020114       -1.25742489167676       -0.78950717863393
H            5.65018938711636       -1.67835095615076        0.92234552368839
H            6.72123630690101       -0.51174520704373        0.08754552098264
H            3.45938444248817       -0.87841220710367        1.50920194264082
H            1.48646929542907       -1.51795674374824        0.42148278872805
H            1.82388722132934       -1.88351880831293       -2.06931370397998
H            0.13990212459265       -1.69523168410184       -1.50361232187557
H            0.17374288259944        0.35913418144766       -2.47438936890228
H            0.87074268762446        1.33243797884956       -0.51402080803558
H           -1.06319570831393        2.06071353378061        0.63211667768419
H           -2.10733417129640       -0.78098923514755       -1.35601368450692
H           -3.70909413548594        1.40569447084322       -2.70158339349274
H           -4.19462866682780       -0.30313965393977       -2.89742990129104
H           -2.21005891386484       -0.64253042903664       -3.91207749818949
H           -4.65452947882554        0.50322775797164       -0.25950646983596
H           -5.17460031567968       -1.79624896253333       -0.12072242015620
H           -2.61710089444483       -1.39080823770431        1.01014459151242
H           -4.02998112598049       -0.71235693821448        2.87005437165267
H           -3.23712252752368        1.54556204837144        1.61531841339363
H           -1.18361089847050       -0.08148128129523        2.62932324560975
H            1.27650453034756        0.26031839978528        2.31785712268557
H            1.26967162244164        2.58312577923239        2.67620718570091
H            3.10922682190824        2.04183260819593        0.64105340589523
H            4.41591967815043        1.68900796708719        2.54852589559709
