48
 energy: -84.858411702006 gnorm: 0.000314345122 xtb: 6.7.1 (edcfbbe)
C            5.71370015153511       -0.86567704840539        0.29051603894785
O            4.90932553200725        0.26912251535421        0.60445253580538
C            3.56980149377358       -0.01023835309527        0.79926036703647
O            2.98910693565117       -0.40414456806248       -0.42589281838063
C            1.60922514701262       -0.69619929621682       -0.33063591232516
C            1.15670410589327       -1.15708852409825       -1.72296872478016
O            1.30713034389165       -0.16096957549463       -2.69473699043846
C            0.80713229134164        0.52760574121829        0.14511316609182
O           -0.53452063124723        0.10657121243482        0.31572946836229
C           -1.50519861380472        1.13059547417366        0.31514300547843
O           -2.15627126761282        1.24012673153505       -0.91753719225721
C           -2.88251845559500        0.08056566959225       -1.30852291929861
C           -3.60485868685326        0.40030942846687       -2.62328814959223
O           -2.74917836111166        0.61219164555832       -3.71313231473577
C           -3.90150638370617       -0.34204413615507       -0.23905787035051
O           -4.46456467447421       -1.56367110181090       -0.63968395453827
C           -3.22502342765282       -0.46357444671929        1.13278215682242
O           -4.22558903088309       -0.76118137425358        2.07614366268125
C           -2.50134977379389        0.84664309595928        1.44985958282355
O           -1.85902614542763        0.72388832616683        2.69195905938255
C            1.39631133168351        1.01091942231332        1.48146797897362
O            0.73190719464280        2.16826825335922        1.93137469506420
C            2.89686340817332        1.26685216690559        1.32164444975249
O            3.39503726624810        1.64700801792493        2.57614180675916
H            5.39271449306585       -1.31469300936127       -0.64972155069430
H            5.65226257801640       -1.60548936646074        1.09330734840381
H            6.72702512679029       -0.48552689522955        0.20291510747594
H            3.43751733330689       -0.82713664690079        1.54063267602324
H            1.44306894624390       -1.51021319792505        0.39076585696878
H            1.72360115883851       -2.05606586754881       -1.99264447919578
H            0.09388849003832       -1.39723202293397       -1.67693433077136
H            2.24464760786696        0.07460655021568       -2.75007393537527
H            0.86189772965794        1.32462118258408       -0.60651667030340
H           -1.03291780908020        2.10774445974015        0.46719457625058
H           -2.18167416346854       -0.75384064737329       -1.45798390717117
H           -4.15535669407876        1.33445707247451       -2.49715740715718
H           -4.30761814520780       -0.41797792743550       -2.82173623119130
H           -2.23309508432945       -0.18792779931463       -3.88390639016072
H           -4.68280452575907        0.43102419912997       -0.16148142579261
H           -5.01930868742915       -1.89060104910704        0.08610353830360
H           -2.47553344585294       -1.26863210661522        1.10049284992815
H           -3.83863158502041       -0.69756978547962        2.96171866699264
H           -3.23683332538872        1.66681077670357        1.47368388124523
H           -1.16589497750929        1.40024648957046        2.75535111293590
H            1.25743901625505        0.20658197532335        2.22227886004505
H            1.29808263358088        2.58276349482679        2.60439520886774
H            3.05846999049292        2.05994019797675        0.57672639524451
H            4.35168961104381        1.78673470037738        2.51358495118771
