48
 energy: -84.744206388051 gnorm: 0.000468668985 xtb: 6.7.1 (edcfbbe)
C            5.61091508281392       -1.06734274466065        0.33506458213574
O            4.85173277862594        0.12238227450632        0.53649071202783
C            3.50203535685478       -0.09678884946274        0.74933639290991
O            2.90930247316290       -0.43334242118685       -0.47711017744704
C            1.52081173772837       -0.73699367101343       -0.39161019734721
C            1.11673191404658       -1.32949629270326       -1.72344271759210
O            1.51695392129176       -0.18504789519017       -2.77452471059294
C            0.75190727958313        0.53424329870966        0.07408022281243
O           -0.58683797304736        0.11585972971216        0.31791637822957
C           -1.57252307219919        1.11215795634704        0.32662318111821
O           -2.27415432210909        1.15812579621628       -0.88932650539991
C           -2.94341384205575       -0.05692151941492       -1.20523247335300
C           -3.64759141795876        0.16009366536858       -2.55249510325794
O           -4.10917634103511       -1.03369512255476       -3.12074139392629
C           -3.94863962608285       -0.45089015140334       -0.10337522567253
O           -4.58524243280066       -1.66323312559131       -0.41745267769797
C           -3.24527443024871       -0.49070958621901        1.25860628939551
O           -4.20351751632127       -0.74925139571429        2.25203577290815
C           -2.53417444790814        0.84635023603657        1.49774611742602
O           -1.86349875145911        0.76711624435027        2.72851632237107
C            1.36176961189380        1.08841083570949        1.37266994057761
O            0.80784781253818        2.33304544404483        1.75581266418215
C            2.89206096141419        1.19250698096180        1.31406776885071
O            3.42913736738251        1.39453401485693        2.59406955303835
H            5.21375505344946       -1.63857920906693       -0.50536411073054
H            5.59404180264110       -1.68223837648244        1.23931987819610
H            6.62234300919888       -0.73181666069360        0.12669921477629
H            3.33981119686707       -0.91495384199993        1.48114150883352
H            1.34761590475522       -1.50894551929381        0.37475575937434
H            2.46091786642435       -0.04472296509330       -2.55023825780185
H            0.01227217411396       -1.28927349871042       -1.76125570129009
H            1.47459057004278       -0.64140739137003       -3.64086176597321
H            0.77010257777290        1.29478379119456       -0.71890305398713
H           -1.13054920600074        2.10923625980842        0.42892321843975
H           -2.20310438846601       -0.86483678769399       -1.30985494555177
H           -4.46765753436782        0.87590259986942       -2.40788352036639
H           -2.93164771358165        0.58893067020614       -3.25683380013488
H           -4.68016329978796       -1.47875053075137       -2.47040558661519
H           -4.74740296844371        0.29925268203931       -0.05475274210832
H           -4.02649533368721       -2.40874064369314       -0.15415804529403
H           -2.47380797711727       -1.27851668631446        1.25132798492339
H           -3.77838404230704       -0.65452680116376        3.11773315673605
H           -3.28546783711073        1.65129926008624        1.51114383790675
H           -1.31350019167884        1.55492127193391        2.85310281087640
H            1.09002076144692        0.39515377115235        2.17805187041690
H            1.12175926442365        3.02558598443074        1.15368593522530
H            3.18793324338309        2.01225828311136        0.63868608494829
H            2.95013994634672        2.12004764516803        3.02644356769454
