48
 energy: -84.738330263631 gnorm: 0.000722319075 xtb: 6.7.1 (edcfbbe)
C            5.77001275557464       -0.80620181812011        0.22900691268333
O            4.91804566924912        0.31113395891665        0.47041460894444
C            3.61339952567993       -0.01907538250257        0.77468129219437
O            2.98114554727962       -0.45247822839471       -0.41287698805594
C            1.60148737785726       -0.73560277474234       -0.29073162885272
C            1.14050924755505       -1.22390045880435       -1.67196262053176
O            1.37580960959176       -0.27972136883411       -2.67783075635110
C            0.82479727323803        0.51122027840981        0.16177328275880
O           -0.53468718742524        0.14117566441883        0.32818464778764
C           -1.46773822912525        1.20034037432549        0.30055878475513
O           -2.10875446079771        1.31431659259158       -0.93003613191692
C           -2.86159480876298        0.16548323782760       -1.33058328678709
C           -3.44088936597028        0.57001162108133       -2.68136653392534
O           -4.35433872293223       -0.66002888688897       -3.13558123795828
C           -3.88518616010397       -0.23482476635588       -0.23214191463639
O           -4.43573944338101       -1.48005909835595       -0.58948850739312
C           -3.22455319583670       -0.31984287359511        1.14920630511712
O           -4.15955627306543       -0.62085574635154        2.16423246681906
C           -2.47648442452499        0.97915335973024        1.43658272651233
O           -1.78072986828488        0.95399424848355        2.65676921661650
C            1.42165365082682        0.95664318372946        1.51312141584874
O            0.84561506022240        2.12905830995579        2.04201994752093
C            2.92600949826312        1.21828584399475        1.36284048544286
O            3.51241107476083        1.47643190437267        2.60865419282596
H            5.40457397036855       -1.39396264169727       -0.61440409441707
H            5.82962843974786       -1.43452778520470        1.12201154474654
H            6.74289510213687       -0.38076966967371        0.00224394787319
H            3.57340842812571       -0.83278889058464        1.52876251608617
H            1.43816538481756       -1.53020837068491        0.45254751270381
H            1.65424018738648       -2.16711349108285       -1.89626549632051
H            0.06327145654837       -1.39020519014671       -1.64230401391070
H            2.31843965359310       -0.05740678808835       -2.67032552196381
H            0.91677967926282        1.30402512807117       -0.58934257662636
H           -0.96217931133809        2.16411270042518        0.43290707061938
H           -2.17316010017171       -0.68923279273456       -1.44019805742515
H           -4.22122183818495        1.33009519995187       -2.46193015046421
H           -3.74351519185050       -1.41585327165049       -3.23196221991012
H           -4.65204922704755       -0.39750649221370       -4.03060998853573
H           -4.67849059660443        0.53516548383295       -0.19601577593958
H           -4.91290047566339       -1.84180462591626        0.17252631309177
H           -2.50566288297751       -1.14637274293361        1.15320059833169
H           -4.84484944937705        0.06462508764955        2.19031734044095
H           -3.18508645176534        1.82444309033234        1.42311588938915
H           -2.30501015865236        0.44937354824613        3.30087583657991
H            1.28471474719636        0.12643317980021        2.22176701669741
H           -0.00261125508168        1.90364480510483        2.46090992043386
H            3.08456856621982        2.06018798797892        0.67409334835677
H            3.03608318898042        2.22052538878548        3.01189138631852
