48
 energy: -84.854517979528 gnorm: 0.000541283225 xtb: 6.7.1 (edcfbbe)
C            5.55059124933126       -1.18785779930295        0.39637414457820
O            4.88116194872977        0.02764871100433        0.72563882517789
C            3.50976096184817       -0.09091715239529        0.83363074606428
O            2.96608064706238       -0.38713798082368       -0.43593923136526
C            1.58072885327045       -0.64119686772565       -0.39999990458697
C            1.15480321960899       -1.03651411072494       -1.81367177838831
O            1.53579116159749       -2.37035050773304       -2.04101928917101
C            0.78592757895794        0.57432347629809        0.10852054376390
O           -0.52623733842477        0.09540027965372        0.36297593944855
C           -1.54508100042171        1.06229663221679        0.42222696781136
O           -2.26192641528954        1.12107813975487       -0.78188680026552
C           -2.93190551654751       -0.08544217572200       -1.13240506903520
C           -3.64996858862458        0.20983363195046       -2.45285247845276
O           -4.25291173965514       -0.97279441341791       -2.92443230915698
C           -3.90884528866074       -0.52905027955812       -0.03309161127944
O           -4.45883121903640       -1.79813083148398       -0.28421120055187
C           -3.16810876851751       -0.61402735112381        1.30723482378348
O           -4.04922667033667       -0.88664960482559        2.37028682828040
C           -2.47885155684374        0.72032992485037        1.59615059694576
O           -1.72484941847325        0.68178624363522        2.77485723939949
C            1.39838138587800        1.17505159209862        1.38404939461819
O            0.87518650951850        2.47165919059637        1.55263959040349
C            2.93673754391711        1.24401286798749        1.32787334867149
O            3.45478265552550        1.65129399822171        2.56367153659424
H            5.19685303247355       -1.57032952860365       -0.56209231449467
H            5.38211832754299       -1.93592690345432        1.17657481219959
H            6.60356223691356       -0.92962163147977        0.34043075765759
H            3.23599184564293       -0.90928851996037        1.53741054442263
H            1.37375487453724       -1.48576845283605        0.27631345765269
H            1.65088759983483       -0.35575973822148       -2.51436773569812
H            0.06667394753659       -0.92189091914710       -1.88824159958511
H            1.37411624718022       -2.59767383845739       -2.96837748764127
H            0.76253962714595        1.35509228090330       -0.66364986697382
H           -1.12460960221780        2.06188155476468        0.56667232376211
H           -2.20037213945152       -0.89362545927299       -1.27835660673566
H           -4.39785286664547        0.99045623598786       -2.26952400563462
H           -2.90757222035723        0.59279651670788       -3.16109143527047
H           -4.67573558681560       -0.80162070274665       -3.77847609066889
H           -4.71015972307156        0.22387936583888        0.06084836630855
H           -4.68814792019377       -1.85910885063553       -1.22817582620231
H           -2.39940884818140       -1.39845366990063        1.23530663857950
H           -4.58363399598951       -1.65774714312619        2.12782293497244
H           -3.24788717392902        1.50691014687264        1.65743995767955
H           -2.28412387174994        0.29562119840084        3.46861427588651
H            1.08908490545082        0.53688401611229        2.22790951366268
H            1.34767561841737        2.90055720006678        2.28464992324729
H            3.23682712052588        2.01552331775764        0.61072475301457
H            3.37078837844661        0.94064591431531        3.21696388039912
