48
 energy: -84.727041409389 gnorm: 0.000731091795 xtb: 6.7.1 (edcfbbe)
C            5.61964502067035       -1.06196019153704        0.33852976529294
O            4.88626202616659        0.10906054478248        0.68774960663147
C            3.52705681196068       -0.08882881676199        0.82526374966097
O            2.98028231248073       -0.35410066620678       -0.44800041068669
C            1.59009269838961       -0.58091970750004       -0.44292734767108
C            1.17487817436710       -0.89007432440856       -1.88409222104170
O            1.34817174768628        0.26186023226018       -2.66940547687024
C            0.80206579563701        0.62567787189000        0.09344777155591
O           -0.52959321500782        0.16611897489585        0.29222099024875
C           -1.53319490079074        1.15408511096170        0.35589193297845
O           -2.22422277957086        1.27798995658851       -0.84731526013348
C           -2.94573099934476        0.10721378225739       -1.24943078152396
C           -3.53683749458439        0.50559309216508       -2.59714395055476
O           -4.24233184961491       -0.83051470740570       -3.16893025693350
C           -3.94706023183779       -0.30160866650704       -0.13404072222704
O           -4.58187265076613       -1.52546015101313       -0.42827784374669
C           -3.22774829842336       -0.47290624674366        1.21327808195353
O           -4.10359725868629       -0.85253454010194        2.24244557250913
C           -2.47611447766514        0.82499116921192        1.52992353235410
O           -1.77316027379985        0.68143813309580        2.73391966822286
C            1.38746063873003        1.09979687246275        1.43655794568436
O            0.84230341280660        2.33006901217925        1.86163560814634
C            2.92025248714464        1.18476768055160        1.42281770873032
O            3.42068931895921        1.33068085170336        2.72448505183868
H            5.29357959416558       -1.44013125889470       -0.63167439119502
H            5.48740217647539       -1.83287067848106        1.10299142734957
H            6.65792796070117       -0.74719500908138        0.29551744370658
H            3.31335457165944       -0.94303993357885        1.50298740145203
H            1.35164200090471       -1.44403314062819        0.19875813938611
H            1.80144370889748       -1.71222368626568       -2.24672657263924
H            0.12310669584298       -1.19840071667885       -1.86251186021221
H            1.14743416013515        0.05272141600736       -3.59322363472042
H            0.82639730609250        1.43016602062218       -0.65207236326418
H           -1.08934038569465        2.14324320420460        0.51900881175122
H           -2.23257627061175       -0.72748914562618       -1.35972499355110
H           -4.43054067284194        1.12374619682072       -2.37566455172229
H           -4.64843888745706       -0.51838099517517       -4.00550067383014
H           -3.50203936183595       -1.42305920863873       -3.41045880675858
H           -4.69550295673348        0.50353956791349       -0.02366415986297
H           -5.14278326912326       -1.41139014362480       -1.21092631596873
H           -2.50510639066539       -1.29115676958092        1.13878171215180
H           -4.76869071905918       -0.16156220923880        2.37764180921186
H           -3.20865652640276        1.64812182204981        1.60479985252357
H           -1.21942728194115        1.46481490912490        2.87805279971089
H            1.08269339928897        0.37188079458484        2.19861678516790
H            1.15782033423574        3.04101571169712        1.28176149471622
H            3.24522877184548        2.02143140124455        0.78374558517812
H            2.93337902642652        2.04286659259408        3.17049836760186
