48
 energy: -84.743547337925 gnorm: 0.000792924472 xtb: 6.7.1 (edcfbbe)
C            5.52015095849303       -1.21154292267799        0.37486397042966
O            4.84357974158369        0.02911689553402        0.57161267493359
C            3.47544034156114       -0.09076639647438        0.73913899318694
O            2.89390228241723       -0.47527707610885       -0.47923653303935
C            1.49763990405010       -0.74218150187781       -0.39524094650842
C            1.08641360122230       -1.33609258176770       -1.72436784953653
O            1.50072580714746       -0.20222285587966       -2.78119191328299
C            0.74033310965642        0.54082408627145        0.05555119361287
O           -0.59083526303513        0.11730152500645        0.33218668868175
C           -1.57571399226879        1.11816934143064        0.33907041511557
O           -2.29169678824028        1.15004134556820       -0.86931705642843
C           -2.98681564589216       -0.05015477625143       -1.18098865542242
C           -3.66247733057773        0.21072534612939       -2.53076225188522
O           -4.28789081916319       -0.96922700465538       -2.97568614827794
C           -4.00046326780519       -0.41521846505016       -0.08357680780941
O           -4.60401359289468       -1.66105184119652       -0.31411764102204
C           -3.27341288985725       -0.47717445082619        1.27047963394726
O           -4.12004577609126       -0.81469664150234        2.33508529183830
C           -2.53997592392830        0.85128843635116        1.51798261740615
O           -1.87517399015760        0.86828674338082        2.75071505010710
C            1.38002416586071        1.18974378131943        1.29034833947505
O            0.85097929696158        2.48567190560604        1.45621320153247
C            2.91270131426557        1.26939070844157        1.17175107486541
O            3.47294115642551        1.75181670098869        2.36315751048314
H            5.11512910880885       -1.73616047973436       -0.49124924099004
H            5.42157318026481       -1.84123990546454        1.26403561098610
H            6.56070858850206       -0.94832967197328        0.21212831126245
H            3.23614060212263       -0.85774967341313        1.51025986178342
H            1.30714081048353       -1.50806879978529        0.37430080340532
H            2.43770828030342       -0.04866520668734       -2.53802433868158
H           -0.01769295987142       -1.28260556952114       -1.75887977413441
H            1.48196435881727       -0.67220473832062       -3.64166192569693
H            0.73223900155654        1.27722713634035       -0.75969290370045
H           -1.12674962669809        2.11071149424461        0.44061019411279
H           -2.27712572286313       -0.88503240970279       -1.27693966568481
H           -4.38946112481180        1.02218603714681       -2.39828925884493
H           -2.88763643118033        0.54382114559855       -3.22981207440889
H           -4.67033116483799       -0.82202324303108       -3.85302650272686
H           -4.76933399104015        0.37741416203201       -0.03645673553167
H           -4.78964569503512       -1.74549274337945       -1.26684100370355
H           -2.53557275509761       -1.28728966166130        1.22408016311492
H           -4.85832467297271       -0.19010840161353        2.38219376885608
H           -3.25844394512882        1.67796235613076        1.55328614452966
H           -1.42236300593413        0.02187213615438        2.87254459970309
H            1.12426278332908        0.56905319245212        2.16583690409075
H            1.37342888791320        2.94768296573643        2.13215038043449
H            3.17874272720550        2.00364613405797        0.40402569557512
H            3.44075236906143        1.07167245040781        3.05211014323393
