48
 energy: -84.850586820503 gnorm: 0.000238514286 xtb: 6.7.1 (edcfbbe)
C            5.62058635098103       -0.93337415747474        0.35077932398861
O            4.85745707929058        0.21114945375647        0.72570804176019
C            3.50216126458432       -0.02372790901991        0.86770959295855
O            2.94812802269041       -0.35498547343460       -0.38598952242109
C            1.55988506732249       -0.60184172177765       -0.34894021430590
C            1.13314714538439       -0.95051561380542       -1.77833525650478
O            1.21456540186862        0.19791070263852       -2.58574462115816
C            0.76359985675403        0.59974421944452        0.18983050932140
O           -0.57228443016817        0.15464040460449        0.35580120805699
C           -1.55735773606074        1.16472002552252        0.41074040107129
O           -2.21527615868515        1.30859522754444       -0.81289103789153
C           -2.92314796345723        0.14890631220547       -1.23598825355453
C           -3.66819109675490        0.51888514019440       -2.52041036498503
O           -4.66134505022244        1.47178590852154       -2.22329267392128
C           -3.91329233382645       -0.38263545387744       -0.17653440130357
O           -4.47016566797645       -1.59830730496545       -0.60327668283827
C           -3.23115577544289       -0.50331612138436        1.19071110713875
O           -4.19479575615528       -0.85475276796849        2.15090632512693
C           -2.54771926850981        0.82355948902949        1.53290584072923
O           -1.90833701387670        0.68532006439691        2.77526902585909
C            1.35109578367804        1.03842834537722        1.54160668410981
O            0.71110735378365        2.20475775433153        2.00294186657476
C            2.85893251636644        1.25957152079148        1.40754034546838
O            3.35055731591527        1.60520515991186        2.67473826935154
H            5.29685789564560       -1.30448013450375       -0.62199224380465
H            5.51370732720112       -1.72021111805376        1.10275624428993
H            6.64982558568872       -0.59071429991812        0.30367899614714
H            3.31741131855707       -0.85994357790202        1.57752112802010
H            1.35073149954862       -1.46008670195322        0.30931571005854
H            1.80289661330112       -1.73726923951216       -2.13791399996803
H            0.10239443928267       -1.32603996955923       -1.74346630709471
H            1.26324420988304       -0.06541960452149       -3.51540701357036
H            0.81064251105587        1.42538159117633       -0.52920373172323
H           -1.09540597434355        2.14016788647769        0.59940653425778
H           -2.19625609249168       -0.64614065519749       -1.46168866851092
H           -2.93999446993621        0.92820966128618       -3.22981617320123
H           -4.11628288083768       -0.39779460665530       -2.92202142439915
H           -5.13242198321577        1.69801399875311       -3.03769389300215
H           -4.75131015841746        0.31718634057938       -0.09296594646428
H           -3.84688946392919       -2.32067291187304       -0.43644764902390
H           -2.44474377574257       -1.27540441580944        1.14123159975174
H           -3.79292054114703       -0.76071792610114        3.02812559833997
H           -3.30770590508503        1.61960525021790        1.56861279455805
H           -1.29696452775992        1.42737499835578        2.89941580865871
H            1.18054795999880        0.22420715914830        2.26523272333539
H            1.27890206155228        2.59143520172173        2.69083752426011
H            3.04992672180200        2.05913819237467        0.67649013153673
H            4.31389673026256        1.69903468906717        2.62918175252848
