48
 energy: -84.741941610571 gnorm: 0.000634298236 xtb: 6.7.1 (edcfbbe)
C            5.69764257729456       -0.97620260935242        0.24859246434841
O            4.96201977104437        0.17720197988897        0.65243302360004
C            3.60852211061223       -0.03850755255053        0.81701154155314
O            3.03162929735794       -0.36789634150035       -0.42850310743775
C            1.65250030474465       -0.65440900071213       -0.36005597439091
C            1.20544149384704       -1.06775466123711       -1.76389572745217
O            1.43812491703242       -2.44679617023083       -1.92198542667169
C            0.84972579808083        0.55475396743630        0.15418172113022
O           -0.48783979143986        0.10559004293762        0.31363582934840
C           -1.48560239645179        1.11104273118851        0.34645082253860
O           -2.11841686988966        1.24088584044386       -0.89008461896382
C           -2.78599850985337        0.06307941876125       -1.34475190393773
C           -3.23166097777556        0.31473792209785       -2.77818260907829
O           -3.67933627059513       -1.09661282204882       -3.25784390409299
C           -3.91349302557268       -0.26793469272353       -0.33621477404679
O           -4.62900047309456       -1.39985398466810       -0.78271619673730
C           -3.29241157041650       -0.50694156905481        1.03739721382306
O           -4.32385523747826       -0.79361496208774        1.95811654088732
C           -2.49372427554450        0.73342463522982        1.45523855644774
O           -1.86420769517531        0.52426399737247        2.69142415500621
C            1.44602025371741        1.05720574634558        1.47737013320555
O            0.83795910524606        2.27008523822961        1.84345092270619
C            2.96915990601567        1.24940843959360        1.35196786987428
O            3.50461090101935        1.68133594313364        2.57166460477477
H            5.33141358315709       -1.34535157094614       -0.71005224328611
H            5.61287609320713       -1.76296824156876        1.00379682036738
H            6.72720290545091       -0.64295190127710        0.16220451028447
H            3.42521758714520       -0.87857789221943        1.52640824242192
H            1.47948104868208       -1.50118800050815        0.32272790713423
H            1.78818473217170       -0.48146600757108       -2.48305570411788
H            0.14090057128908       -0.83401342413990       -1.87740076824439
H            1.20852048570533       -2.70261306382828       -2.82722122807985
H            0.88534123599241        1.36523322646429       -0.58440762969914
H           -1.04288375437731        2.08732327127566        0.56286314946948
H           -2.07641712790266       -0.78052499233211       -1.33683411286778
H           -4.17937814931920        0.89772856330808       -2.71489244139834
H           -4.31282511033929       -1.49307693681096       -2.60934495926387
H           -4.09915776349884       -0.96519314647468       -4.12965212885192
H           -4.59046124091352        0.59994981745730       -0.26729878684744
H           -5.20272500497513       -1.70099301486083       -0.06263264008381
H           -2.60296195267255       -1.36549105682222        0.96933166564191
H           -3.97884487606912       -0.67542007481561        2.85569573860233
H           -3.18286396953787        1.57262210478668        1.59578362382381
H           -1.10608335071003       -0.06053440332190        2.54081656035696
H            1.25084010730397        0.29657621599302        2.25378036260716
H            1.40137304593012        2.70382342865941        2.50672627371403
H            3.17546538844758        2.04800145424211        0.63161943827254
H            3.60030017964919        0.93808512258215        3.18542922648205
