48
 energy: -84.740191190552 gnorm: 0.000635731016 xtb: 6.7.1 (edcfbbe)
C            5.65782764123217       -1.03628975320255        0.32154249919405
O            4.92097542919478        0.11373139528902        0.73207416916935
C            3.55992537939758       -0.09477406381934        0.86108319496051
O            3.00694755889569       -0.39382514596091       -0.40007794636264
C            1.62299564328993       -0.65598076733157       -0.35684498923860
C            1.18940472788758       -1.01372423803725       -1.78722998356319
O            1.63756531956833       -2.27636642379878       -2.19631732708993
C            0.82449500403694        0.54707975986882        0.17932024638582
O           -0.50960783913101        0.09122816884996        0.34294133383551
C           -1.50897201525382        1.09891042757299        0.39871677643610
O           -2.15495901701577        1.25115674060016       -0.82286453895849
C           -2.85382597498047        0.05781507140452       -1.27047650773665
C           -3.19713894753690        0.17471944013223       -2.73872080793259
O           -4.65662757196802        0.62411659055181       -2.89161117174588
C           -4.00326558361411       -0.12149467357075       -0.24993545831970
O           -4.93142189982200       -1.08877217493006       -0.68746463283939
C           -3.37165894833838       -0.47242148988601        1.10062194605630
O           -4.35653186498694       -0.81262340920476        2.05226338565553
C           -2.49625654853545        0.71135784701112        1.53490048818444
O           -1.82990676748562        0.46514225139313        2.74099349841932
C            1.41747673260544        1.05225913148037        1.50572411865801
O            0.83293699041975        2.28804523744023        1.82853394832955
C            2.94163337077733        1.19860624520236        1.40612397427156
O            3.41344422520390        1.50408398524443        2.69147002591551
H            5.30912026103110       -1.38411584746706       -0.65152319071151
H            5.55120689058540       -1.83501978892371        1.06093496206934
H            6.69149232957755       -0.70955303918994        0.26194567340248
H            3.35269403823518       -0.93477021122561        1.56030611930088
H            1.43253701934667       -1.50713577697508        0.31822868692553
H            1.64956089716632       -0.29667899194367       -2.46909381482878
H            0.09985761268716       -0.92763009593133       -1.85968237488561
H            1.17277874847934       -2.96859794694776       -1.70472597669298
H            0.85148351678894        1.36444536668720       -0.55227118459331
H           -1.05593436880607        2.06716009988791        0.62954080484206
H           -2.14850032837972       -0.77734733954489       -1.16373294491891
H           -5.24965430533701        0.11049080315899       -2.29344966882699
H           -3.24429074615776       -0.85644067837895       -3.13182340384549
H           -4.67815361180249        1.57811900184165       -2.68530569578035
H           -4.51516039517725        0.85039639978579       -0.13209860019708
H           -5.33049362767779       -1.50499221461837        0.09220717004228
H           -2.74913055440552       -1.36856039844790        0.98506166833455
H           -4.65356380360422       -0.02086304062569        2.52295983993460
H           -3.13792753942061        1.57989054491908        1.72524056084118
H           -1.18886044464653       -0.24563296015452        2.59618525657984
H            1.19906855933255        0.31599350188415        2.29578816655293
H            1.27680407110084        2.63640204742666        2.61900958369254
H            3.17945487507968        2.00215126160781        0.69390183463416
H            4.37871086109253        1.58534515335267        2.66552432599839
