48
 energy: -84.857808540297 gnorm: 0.000646829034 xtb: 6.7.1 (edcfbbe)
C            5.64813136763108       -1.03913701943981        0.38961977960807
O            4.90456902888816        0.13584603931668        0.70491243066713
C            3.54561030093401       -0.06334449655414        0.83683449089327
O            3.00029329436987       -0.38869132964048       -0.42622405860658
C            1.60836613462149       -0.63392721865113       -0.41717539098105
C            1.22239725696053       -0.95786978074990       -1.86889092304971
O            1.49765598950856        0.10881392799226       -2.73363143874088
C            0.81054224664020        0.57481753231919        0.10001860431606
O           -0.52771037686899        0.13314510124527        0.26552724125643
C           -1.50976554151540        1.14166030978033        0.29994335858007
O           -2.16260942121155        1.26647543528345       -0.93300142688424
C           -2.86519715078016        0.09184353930361       -1.33581361493128
C           -3.53038174239141        0.40048345061366       -2.67996353436407
O           -2.60119717755694        0.59614129794579       -3.71214241727585
C           -3.90590686319800       -0.32498011373277       -0.28944345658480
O           -4.49030307423582       -1.52855723924253       -0.70933502146233
C           -3.23738127347301       -0.47515483670684        1.08373256405508
O           -4.24409451764944       -0.77829974000963        2.01817451504333
C           -2.50765549737323        0.82516126331939        1.42694371653939
O           -1.86982302782405        0.66689920048484        2.66653099585834
C            1.38450457974189        1.02959478920896        1.45238834317848
O            0.75986694463678        2.21636438049749        1.88408687684703
C            2.90453319709145        1.23030766271946        1.35661453127466
O            3.41878238111292        1.66466546621934        2.58386415836528
H            5.33486507210742       -1.44557206908444       -0.57274440808342
H            5.51464003918320       -1.79379781030775        1.16998849457090
H            6.68494396154629       -0.71994313739601        0.34700516207895
H            3.33268994904784       -0.89998254370868        1.53994538911860
H            1.37518623255963       -1.49379612915709        0.22794195325769
H            1.75628131639955       -1.86287488051738       -2.18105555065328
H            0.14753615858335       -1.13534327764026       -1.92045216500607
H            2.45076388648517        0.28259279072828       -2.71052074737685
H            0.85948246045968        1.39354621564959       -0.62760341857900
H           -1.04916860899374        2.12089352668407        0.47496362021105
H           -2.15282942029645       -0.73442690823089       -1.46314377087692
H           -4.16830685108917        1.28469358523216       -2.55649827827257
H           -4.14248503501263       -0.45562053927957       -2.96701455617476
H           -2.01975689749313        1.32983411790440       -3.46675882576337
H           -4.67166998939270        0.46376201201937       -0.20898313668692
H           -5.05389437665211       -1.85592927400975        0.01007730799157
H           -2.49449680848032       -1.28550444819259        1.03970406582954
H           -3.85763548434919       -0.74845175550012        2.90577769223321
H           -3.24337699721107        1.64409494458270        1.46815496915025
H           -1.29023522274237        1.42768723083848        2.82510690529298
H            1.17021520853495        0.22876757651267        2.18138084186257
H            1.38907342986921        2.68957531545043        2.45668665783968
H            3.12886063293927        2.02804844045106        0.64076591791686
H            3.45640129181968        0.93320340546556        3.21808257897923
