48
 energy: -84.857144640509 gnorm: 0.000908482643 xtb: 6.7.1 (edcfbbe)
C            5.68457944294230       -0.84429673740604        0.36753985383103
O            4.87693051655158        0.26666100431488        0.75225974595233
C            3.53682988076635       -0.03115600284052        0.91616282967417
O            2.97906953255007       -0.39028896550395       -0.32877994437605
C            1.60558922354251       -0.70594468653597       -0.26500765292643
C            1.16864034986680       -1.14045377440948       -1.67126294999425
O            1.62499808867903       -2.41495590821436       -2.02807359521003
C            0.77966740090974        0.49770056378409        0.22545818469477
O           -0.56123241429748        0.06290524715025        0.36510692131929
C           -1.53902016191714        1.08142967411508        0.36910463522494
O           -2.16317773068881        1.19984072335646       -0.87746550918880
C           -2.89754231091614        0.04804542041487       -1.28287675120097
C           -3.55720211370890        0.36905477254149       -2.63149303807822
O           -2.66721351536018        0.33860374576022       -3.71587760849936
C           -3.95537196093581       -0.34130968969470       -0.24013639659543
O           -4.55696240284567       -1.53749606360604       -0.66054050336467
C           -3.30255280009216       -0.49982137081125        1.13931643016719
O           -4.32256627283930       -0.78533689686649        2.06482641384681
C           -2.55285358583657        0.78814285017049        1.48542493017288
O           -1.92744410049213        0.62865055794083        2.73131373864304
C            1.34129764489075        0.95239906620598        1.58518010009518
O            0.65746545998539        2.09273899813806        2.05010712274474
C            2.84238239922217        1.22526301324050        1.46118067097569
O            3.31253568829414        1.57983195626292        2.73415037383749
H            5.34481278020462       -1.24995239765851       -0.58608371920538
H            5.64549024491681       -1.62142764743808        1.13612831418857
H            6.69253385440827       -0.45080322362676        0.27687796057112
H            3.40274676728545       -0.87097963265455        1.63246616313761
H            1.44681034016165       -1.53024385316865        0.44887547938071
H            1.60619317738979       -0.45018013670180       -2.39466046607208
H            0.07645941403075       -1.07550901248864       -1.72181471742195
H            1.20369015055761       -3.08579600869288       -1.47070064285967
H            0.84250257911449        1.31785155080803       -0.49979948032804
H           -1.07183569212091        2.05768072045737        0.54074653923183
H           -2.20903280241324       -0.80176354335174       -1.39613323331025
H           -3.94122920018472        1.38998840669214       -2.58615753909892
H           -4.38604702675031       -0.33152784292744       -2.77787180676642
H           -2.41886134900357       -0.57726865847776       -3.90535900743329
H           -4.70664855658780        0.46146234368688       -0.17064325034519
H           -5.12967525238016       -1.85418621366808        0.05567536801616
H           -2.57287410621124       -1.32305627101451        1.10549249286543
H           -3.94892427771469       -0.73672587698305        2.95735454389349
H           -3.27381447391835        1.62146918527234        1.51669337853866
H           -1.23437824306348        1.30261924329946        2.82454355785883
H            1.19547865748480        0.12963394287238        2.30409105631281
H            1.21265940656068        2.50207370777129        2.73524202452908
H            3.01163435715356        2.03676653249119        0.73762437168012
H            4.27180999965426        1.71119119530088        2.69595464294945
