48
 energy: -84.856028340080 gnorm: 0.000295800240 xtb: 6.7.1 (edcfbbe)
C            5.73007643821838       -0.66058739623233        0.10329159702737
O            4.85157671777166        0.42645911887232        0.38339724105465
C            3.56437318686248        0.05040333936288        0.70732843038210
O            2.92306355707808       -0.38993968488088       -0.47294050682585
C            1.56171110588628       -0.73510648235001       -0.31965992608421
C            1.07850289477168       -1.20514168237994       -1.70159070547109
O            1.18049164265940       -0.19772101435585       -2.66925766414331
C            0.74596382613397        0.46965496623557        0.17390012250893
O           -0.59390125992573        0.03783849850837        0.36679113456244
C           -1.56630990803278        1.06506402906850        0.37721833843204
O           -2.22834744109630        1.16285596396719       -0.85059022071215
C           -2.96740158584043       -0.00073423466896       -1.19655561101402
C           -3.55471771875296        0.22024263843023       -2.59580161787307
O           -3.98218889390899       -0.97398030872820       -3.19163681241481
C           -4.05576811781412       -0.25835599786003       -0.14565656231381
O           -4.78222457902912       -1.40163331460224       -0.51490014163749
C           -3.40210105985759       -0.43559377634432        1.23174436201559
O           -4.43590401906817       -0.60217628842596        2.17285241146924
C           -2.52799284276417        0.78227839581795        1.54936540003194
O           -1.79676178423570        0.60557093770245        2.73768259152079
C            1.35660922193446        0.94174030508237        1.50981742204215
O            0.74656126931967        2.09702589771555        2.03920136805975
C            2.84797177249813        1.25893964787729        1.32206848332010
O            3.45542975420377        1.52332476302546        2.55605615356802
H            5.36604118320057       -1.24063418712194       -0.74630335614234
H            5.82343186788779       -1.30596251173610        0.98130492247367
H            6.68692052043455       -0.20414373613297       -0.13138342808662
H            3.56613397476414       -0.77309044477420        1.45207196521511
H            1.45514182600491       -1.55564096851624        0.40508302321525
H            1.66034957457488       -2.08753309166424       -1.99260321868767
H            0.02242325808383       -1.47034651812137       -1.63841629866431
H            2.11135837390352        0.05898987270086       -2.74647219319145
H            0.78355297641839        1.27006878251805       -0.57304700184663
H           -1.09253872989704        2.04377926238861        0.50831620928038
H           -2.29704716495214       -0.87123767685090       -1.23327165203149
H           -4.37554408756921        0.94696479752999       -2.53189760768082
H           -2.77081607149654        0.63099509189195       -3.23582547396269
H           -4.57319614083488       -1.43044379601330       -2.56911244075030
H           -4.71965607262462        0.61979090535173       -0.09986844339974
H           -5.39104189262021       -1.62293394396131        0.20675824031449
H           -2.76491664713460       -1.33510443512011        1.20038637955049
H           -4.07402823054791       -0.52960879813206        3.06833472442848
H           -3.16694266339143        1.65606601340636        1.70603381309961
H           -1.24849032292827       -0.18898537384371        2.63524821383997
H            1.28283026571090        0.11293226182934        2.22849184946264
H           -0.04952353031990        1.85264889321742        2.54201062386692
H            2.96042190469135        2.11027287345406        0.63683421287956
H            3.00570066711491        2.28420742799159        2.95790168773490
