48
 energy: -84.858066485414 gnorm: 0.000599551395 xtb: 6.7.1 (edcfbbe)
C            5.64190177122165       -0.68058639886510        0.16611482224418
O            4.79149375821446        0.41179106850491        0.50768983585442
C            3.47534954673174        0.06529024716761        0.75028377008462
O            2.87423256591178       -0.35639947394566       -0.45573100956709
C            1.51004092713975       -0.70261473589563       -0.32318792238911
C            1.03980305811747       -1.17793015713308       -1.70611712446271
O            1.10433648212360       -0.16672230895585       -2.67300086423699
C            0.67700218865223        0.49285151790821        0.17045590238163
O           -0.64922204802546        0.03341467260172        0.36060759451375
C           -1.64115611604638        1.03540229971553        0.37569732242283
O           -2.30095439694155        1.11892148135323       -0.85414371770198
C           -2.99362788844653       -0.07100509224862       -1.22365773273557
C           -3.66607504346745        0.22015149664852       -2.57195235172636
O           -4.49010969108013        1.35465837785474       -2.51954158507140
C           -4.02975625107347       -0.49050414144835       -0.16037918574850
O           -4.65071021128560       -1.69373890735219       -0.52363787186131
C           -3.36107885383621       -0.57199299899999        1.21943484713312
O           -4.34391173025671       -0.84025455339116        2.18668966435888
C           -2.62871816584331        0.74187459881334        1.51440451117255
O           -1.97407448381491        0.61779812168584        2.75051195798564
C            1.27665349938639        0.99428677425022        1.49502788958851
O            0.58077919664517        2.12620736651369        1.96153191686496
C            2.76198387180566        1.30903738271650        1.29893564150575
O            3.27675599910056        1.70179467673364        2.54266647394098
H            5.29787377193844       -1.16298032781048       -0.74907542265086
H            5.66647773189596       -1.40900250256416        0.98113458915073
H            6.62537232037529       -0.24484299761631        0.01800273190554
H            3.40995442603671       -0.75697480652576        1.49428549604383
H            1.39469897044134       -1.52217440911153        0.40137388274083
H            1.64645610777021       -2.04188235396015       -2.00133525270250
H           -0.00673486021723       -1.47587893835434       -1.63460732326449
H            2.02895538129301        0.10575195716440       -2.77157375023924
H            0.69652749927942        1.29159784487962       -0.58109541503037
H           -1.18855805397014        2.02271360398889        0.52082979479033
H           -2.26802720529819       -0.88690970560916       -1.34898864784570
H           -2.88648674151591        0.34363038801051       -3.33389194172491
H           -4.31060115529815       -0.62056240375266       -2.83370208911093
H           -3.94799620287885        2.10427085042034       -2.23303355200933
H           -4.83343036787643        0.25307511354646       -0.12539446997440
H           -4.04871031061384       -2.43599595833221       -0.36703948716734
H           -2.60595320532927       -1.37599524680927        1.20895290308841
H           -3.93779783971367       -0.75369619660855        3.06256587555364
H           -3.36644990892416        1.55913318009448        1.54680226673709
H           -1.30912989637393        1.32045222074003        2.82603642000880
H            1.18583738151275        0.18468169780905        2.23731464610718
H            1.14139669124250        2.55408559798857        2.63067565494636
H            2.87241202926953        2.11308720398760        0.55616967783079
H            4.22565946310173        1.87839489852874        2.45703667542976
