48
 energy: -84.851253761805 gnorm: 0.000503937005 xtb: 6.7.1 (edcfbbe)
C            5.55438104363720       -1.22792385714156        0.52578969006960
O            4.87159274774425        0.00080944214404        0.75838946391610
C            3.49738700802243       -0.10096766309455        0.83693006526431
O            2.97489121080667       -0.44087410757604       -0.43237567596517
C            1.57449034649952       -0.63147337393993       -0.43203143441563
C            1.17222015370888       -1.01127052092811       -1.86359264386885
O            1.55858941575534       -2.31289605597783       -2.20648827246009
C            0.80529973371026        0.61455345130144        0.03754672494854
O           -0.51988216854953        0.16721636314975        0.27862825927108
C           -1.52397368259130        1.14989682904983        0.30241020679270
O           -2.22517705808828        1.20236661673098       -0.90911315101955
C           -2.88853388926705       -0.01326274561530       -1.25937991491557
C           -3.54968800111429        0.24771115543116       -2.61978374098338
O           -2.61712731131308        0.63750623052581       -3.59280136504046
C           -3.91154073939447       -0.42125381674927       -0.17967634242019
O           -4.47856603142705       -1.67945693434873       -0.43934250784130
C           -3.19308984943701       -0.50279844442489        1.17392901095537
O           -4.04229677798328       -0.84262464226608        2.23952474085538
C           -2.48770920242267        0.83231279432530        1.45793940648437
O           -1.77325727063603        0.78958938934827        2.66158204776259
C            1.40515395634317        1.22865016311929        1.31189133701532
O            0.90683709155055        2.53904588006360        1.44502823997416
C            2.94341135375421        1.26160595105222        1.27465085605597
O            3.45526256008535        1.69799090022160        2.50322686811410
H            5.30653551276966       -1.62443572837522       -0.45916142259664
H            5.29593734928110       -1.96022031249948        1.29593696038870
H            6.61079608293180       -0.98211780442399        0.57819813870550
H            3.19671539668816       -0.88800754625788        1.56462614694426
H            1.31132126687054       -1.45654233201177        0.24919766887765
H            1.60809459201110       -0.27550235066297       -2.54940491690724
H            0.08494822954754       -0.98290113555470       -1.94401743641629
H            2.52464897898465       -2.36561277490478       -2.19701345866235
H            0.81442072023754        1.37960441837664       -0.74993997327651
H           -1.09166476191872        2.14563299245140        0.44186402422457
H           -2.14662492042522       -0.81784256930754       -1.35407556847515
H           -4.31906189320643        1.02147982212229       -2.49650208784314
H           -4.00143010450566       -0.67205265388076       -2.99277266300277
H           -2.16190585408992        1.42865683466938       -3.27119460972267
H           -4.68817818572317        0.35758103423855       -0.11854146232979
H           -5.13791063507931       -1.61767823710917       -1.14391584051571
H           -2.44176948831498       -1.29800733506604        1.12853975816900
H           -4.86183256069355       -0.32854465784605        2.18992147995725
H           -3.23930536993314        1.63991956465241        1.49375052320495
H           -2.28257609341923        0.24643334185044        3.28753741001465
H            1.06974896153862        0.61515303504640        2.16402236415334
H            1.38030575317946        2.97586172045868        2.17124835584469
H            3.27134787843433        2.00133255763580        0.53631440577216
H            3.34566050524822        1.01299011392405        3.17985833752549
