48
 energy: -84.742926570435 gnorm: 0.000719312642 xtb: 6.7.1 (edcfbbe)
C            5.67416349384834       -0.81936427791699        0.20196749786257
O            4.87565165285924        0.29130220694729        0.60351610979278
C            3.53928900507857        0.00112061509096        0.79203799927556
O            2.97236057975511       -0.40601652046683       -0.43472426282638
C            1.59667519929083       -0.71133456154276       -0.37628682678362
C            1.16676152185312       -1.12017826139933       -1.78861923748067
O            1.27855865139188       -0.00760582475543       -2.63845807121943
C            0.75822190837745        0.47935904061423        0.11730064791191
O           -0.56375344881127        0.00587343335558        0.31266929678095
C           -1.56779496534414        0.99702596728474        0.32566867788081
O           -2.23548095472586        1.06816413511492       -0.89426062333153
C           -2.92186795702089       -0.14020470103370       -1.26912261343482
C           -3.44155049364726        0.06243796049847       -2.67648192380728
O           -4.33931558000748        1.39555904562916       -2.54921651144287
C           -3.96117264663237       -0.49231303694323       -0.17533419708257
O           -4.56640554681994       -1.71573907328109       -0.52023175256076
C           -3.28122702954244       -0.58950371637698        1.19485819288491
O           -4.27649770363680       -0.85069209592835        2.15976700331022
C           -2.53582364906072        0.71268101563637        1.48445188921460
O           -1.86295814824334        0.59636600741795        2.71244394717311
C            1.33842589928045        0.96704658661394        1.45543943438086
O            0.65190359016409        2.10524174031797        1.92563352433925
C            2.83639921499542        1.26409005398754        1.30588185337352
O            3.36022106567861        1.75617518655643        2.50773322495177
H            5.34131912489403       -1.19760968095088       -0.76509270745961
H            5.62020477140615       -1.61534399400205        0.95024769893871
H            6.68622227055886       -0.43267933538618        0.13226973383206
H            3.41468298204791       -0.82646540435539        1.52980932584056
H            1.42514253835610       -1.55423117289087        0.31201205554482
H            1.82243589317084       -1.93368337782364       -2.12064004769851
H            0.13038050512987       -1.47481915344657       -1.73531582298378
H            1.00403590141482       -0.26144888731085       -3.53171108232545
H            0.78151466285015        1.27837254865337       -0.63135524948354
H           -1.11758731115147        1.98860309462104        0.46108408311236
H           -2.20760364219587       -0.97524056738739       -1.30849463275918
H           -4.49393727783111        1.65410619080334       -3.48059878461061
H           -4.21649129772585       -0.71425894602645       -2.82488345612419
H           -3.68473366188623        2.01443353732505       -2.16617350046682
H           -4.72485041017536        0.30181102463874       -0.12394457596446
H           -5.12094046113212       -1.99127810688752        0.22536109626063
H           -2.54556268297965       -1.40850703210331        1.17206721356584
H           -3.87121203433852       -0.79375525837007        3.03734596008576
H           -3.26812567849687        1.53611322693077        1.52787022017259
H           -1.17386223004659        1.27939849999758        2.75686758776288
H            1.20268525442786        0.14836836385956        2.18416557884904
H            1.27805288643555        2.62371418597637        2.46207137947081
H            2.98567480382242        2.05486146840141        0.56315522140738
H            3.50345443811705        1.03533187059098        3.13895141141741
