48
 energy: -84.747544367580 gnorm: 0.000513769598 xtb: 6.7.1 (edcfbbe)
C            5.72314765662717       -0.95434635074151        0.30046230902232
O            4.90644719578315        0.15771440241111        0.65864310620327
C            3.56422410626301       -0.12988157286167        0.81999399609775
O            2.99255554073398       -0.46827534790416       -0.42592978634731
C            1.60660426423204       -0.74745814257130       -0.35758563117843
C            1.15437102966782       -1.13689325699908       -1.77193421590968
O            1.61975038350695       -2.40103015147084       -2.15570533042029
C            0.81118581548075        0.46316324806636        0.16121345853781
O           -0.53539792693627        0.05408206319385        0.30543967736863
C           -1.49238307183953        1.09419238194492        0.33321474605999
O           -2.12026735394140        1.24291342894269       -0.90363847458393
C           -2.84692393180487        0.08404880867212       -1.32146834253907
C           -3.35896314171880        0.34038336097170       -2.73087042853882
O           -3.80063291477880       -1.07430286549928       -3.20177247444567
C           -3.93826794858383       -0.22831919084951       -0.26616164435992
O           -4.66203984952012       -1.36662948036781       -0.67939878759812
C           -3.29796940047274       -0.44348722926806        1.10562005070499
O           -4.32466500805000       -0.70515961797044        2.03673615862900
C           -2.49706031019325        0.80815723625753        1.46190068913036
O           -1.85680968872964        0.61139523760061        2.69602968821638
C            1.39286861569642        0.87789485835064        1.52534687004851
O            0.73528690585958        2.01786172658594        2.02823812408957
C            2.89495073599858        1.12894790301677        1.38827814994435
O            3.38672968705722        1.45691053975323        2.65998651080639
H            5.46230416127698       -1.31631124583553       -0.69375567789318
H            5.60783077044377       -1.75964874915136        1.03088242771691
H            6.74163590022231       -0.57738932449271        0.30959802349250
H            3.42128630872703       -0.97684148596591        1.52527087566252
H            1.42752961612760       -1.59153971148225        0.32580519151457
H            1.48897842156683       -0.36046663297945       -2.46880469747739
H            0.06515456470077       -1.18567409133938       -1.78855007859252
H            2.58474128791184       -2.37294820506779       -2.22209462541650
H            0.88302649034731        1.29597476254420       -0.54889832429228
H           -1.00239369449259        2.05762164448009        0.51770869630708
H           -2.15838600952476       -0.77645697004264       -1.34611540157267
H           -4.31468885374904        0.90381301116275       -2.62250477644000
H           -4.41255265584028       -1.48043884378171       -2.53983838440622
H           -4.23910545833674       -0.94829690042809       -4.06524961312165
H           -4.61780179737896        0.63838243890006       -0.19332065335126
H           -5.20863377438695       -1.66381219011872        0.06309122300235
H           -2.60167439905383       -1.29472900082003        1.05583596541073
H           -3.94052005998720       -0.69635781083723        2.92499663632088
H           -3.18815072181471        1.66590160363700        1.51955826214671
H           -1.12607680217357        1.24674600292775        2.77390828905009
H            1.24083666112319        0.03978010954445        2.22489884278823
H            1.30971575166998        2.40210472919209        2.71263145374195
H            3.06784093763984        1.94870592706894        0.67521753572712
H            4.34722896490605        1.57607495162474        2.61022043715840
