48
 energy: -84.857967206896 gnorm: 0.000639995853 xtb: 6.7.1 (edcfbbe)
C            5.53182686492796       -1.13980419660767        0.40772467578079
O            4.83241527232176        0.05997440928750        0.73078305724578
C            3.45901651180724       -0.07876163234486        0.82166420276385
O            2.92997991178861       -0.35434519675371       -0.45656646550810
C            1.53503942079957       -0.57063149010541       -0.44127343756380
C            1.12453897319801       -0.87487785335151       -1.88967183313498
O            1.36310273869240        0.20433706291881       -2.75028005547382
C            0.75479036309829        0.63610314494470        0.10719022673570
O           -0.56265666506385        0.15565536222045        0.33302330559902
C           -1.57208687339968        1.12865052051921        0.41914207798322
O           -2.27833327642111        1.24103731407664       -0.78650095859019
C           -2.91784611709149        0.03610534921906       -1.20136662000103
C           -3.56954507770770        0.34457805924695       -2.55645836857405
O           -4.61048446720414        1.28136343304860       -2.44807453244246
C           -3.94423919912369       -0.43511000493257       -0.15006593183048
O           -4.49438725309379       -1.68368010580828       -0.48939192884781
C           -3.23812487061691       -0.57621049005763        1.20344434603615
O           -4.09769352210674       -0.96332983752937        2.24606315426978
C           -2.53688459287012        0.74528947402571        1.55426479396536
O           -1.82893810474925        0.64893031850617        2.75875504317234
C            1.36113070286022        1.19173003645271        1.40568047668377
O            0.84608338373550        2.48545912033017        1.61132265298452
C            2.89404594514401        1.24622460589978        1.34704142767117
O            3.35321309956925        1.52800593287775        2.64266499364455
H            5.22177238879669       -1.51267022254987       -0.56901999686098
H            5.34749502631677       -1.90163965201744        1.17015535660621
H            6.58234333195437       -0.86520957603517        0.39292027632752
H            3.18503311892507       -0.90380211076466        1.51281012309242
H            1.29523188034105       -1.43508759794447        0.19667576399156
H            1.66628293314257       -1.76734879218148       -2.22459831059546
H            0.05177290604998       -1.06873764883390       -1.91815415983835
H            2.31114020024365        0.40258350273451       -2.73372923423048
H            0.74110090919563        1.43731833086803       -0.64418761347620
H           -1.14574404348282        2.11769527467332        0.61130409201099
H           -2.16845499209597       -0.75627481503432       -1.32885287194569
H           -2.78688764662168        0.70291836306451       -3.23469602875742
H           -4.00787570296749       -0.56505516450505       -2.96885160002401
H           -4.23219725222814        2.12181790499550       -2.15370690473343
H           -4.73077011974874        0.32978773826218       -0.06483338982360
H           -5.15981893264970       -1.56902452666494       -1.18214205743393
H           -2.48527103574947       -1.36829058078913        1.13158822949915
H           -4.92100655627812       -0.45465403070210        2.20329454976065
H           -3.29313437015455        1.54642910208885        1.62588362960859
H           -2.33936840390919        0.07494066166446        3.35485396031360
H            1.06301378831064        0.53141363173978        2.23369281042625
H            1.22667201551387        2.83763797595563        2.43103915597261
H            3.19482128108947        2.03604064187858        0.64263555021661
H            4.32220111185865        1.55396726075688        2.63927438521725
