48
 energy: -84.850855091698 gnorm: 0.000576047975 xtb: 6.7.1 (edcfbbe)
C            5.68177491640668       -0.94758565772363        0.18855726753976
O            4.93768533734734        0.17743243669564        0.65190503074817
C            3.59090666851821       -0.06482549329308        0.83345745720311
O            2.99479929070603       -0.34660889980689       -0.41543035644745
C            1.62181495414148       -0.65576680720862       -0.33160204978860
C            1.16125336526815       -1.03984312671121       -1.73810468867610
O            1.54877827030234       -2.36865498861470       -1.98545760617032
C            0.81919167992884        0.53236413174205        0.22856111965546
O           -0.52216790897490        0.08944271647681        0.37749278007205
C           -1.50793692973617        1.10397385721876        0.45318209632167
O           -2.14516429471269        1.28518311678523       -0.77907015702488
C           -2.86790002858562        0.15338040871440       -1.25186816491418
C           -3.40678691109119        0.47922182359913       -2.65591885570787
O           -4.54607957815857        1.29730428348842       -2.66524818864692
C           -3.97700035852001       -0.21286815089046       -0.26072270891604
O           -4.69131483281075       -1.31162766347511       -0.76536142073882
C           -3.32988688651067       -0.51827480690504        1.09243657142997
O           -4.35178669458188       -0.83022055539781        2.01007897362432
C           -2.51516351324754        0.69919786557384        1.55170082920022
O           -1.88246600543545        0.43785296449845        2.77447085225941
C            1.42431797766732        0.98738702075825        1.56496876336863
O            0.81507401552243        2.18573548387738        1.97322445480638
C            2.94670125177684        1.18986108423812        1.43803371010685
O            3.48980085204896        1.56100883193658        2.67400091314219
H            5.29743642898006       -1.28906191811186       -0.77333739568082
H            5.62993509445105       -1.76220093775594        0.91667603367210
H            6.70316529187404       -0.59371763039547        0.08816229772657
H            3.43255865176537       -0.93813148021986        1.50739484453919
H            1.47332143190996       -1.52357668592635        0.33005339455919
H            1.63302040482277       -0.34809767557349       -2.44426671506006
H            0.07092938102178       -0.93440099424238       -1.78740322920431
H            1.37216886752140       -2.58789667991086       -2.91174135927021
H            0.85889776711110        1.36896191583695       -0.48050577155362
H           -1.05278779933806        2.06697248611190        0.69915129357764
H           -2.18467075454950       -0.70352843552941       -1.33716788258330
H           -2.63128455749562        1.03365486052064       -3.18806860871312
H           -3.60482279658991       -0.46724093157685       -3.16916255929573
H           -5.31241149730272        0.77156990150360       -2.39524157631967
H           -4.64035496386716        0.65636436126357       -0.12861859708689
H           -5.25447093010088       -1.65544483450072       -0.05438416820350
H           -2.65113958099781       -1.37988998836805        0.97756585734524
H           -4.00145585188130       -0.73774863712112        2.90908866565249
H           -3.19352498456314        1.53978195895695        1.72827952542413
H           -1.15182770157093       -0.17637262566006        2.60672516913062
H            1.23529523702674        0.19976231007009        2.31474164560267
H            1.36618879162216        2.58847207200492        2.66524592574776
H            3.14541411576243        2.02572264327929        0.75892894170223
H            3.58567632414958        0.78904608308746        3.25117067065075
