48
 energy: -84.853886016052 gnorm: 0.000710202635 xtb: 6.7.1 (edcfbbe)
C            5.56008893365416       -1.14203842809230        0.26265729733486
O            4.88664512079167        0.05962171811643        0.62919842322691
C            3.51460326103021       -0.06759471899523        0.75447749383269
O            2.94742571136105       -0.36019900704454       -0.50222601335612
C            1.55337102723762       -0.56443931655893       -0.43625659227498
C            1.07170236553853       -0.94673206928153       -1.85605974658667
O            0.85114491610871        0.15710841421282       -2.69619849083632
C            0.80959177652430        0.66635368905182        0.10595046519267
O           -0.51820564993197        0.22100647416066        0.33315671071882
C           -1.50393003805163        1.21782743690731        0.40969280269730
O           -2.18445234328716        1.31587480210516       -0.81476320910820
C           -2.75763075272432        0.07604840348044       -1.21722434787993
C           -3.22617895314130        0.22816469503376       -2.65957804798417
O           -2.09912495489190        0.05104909451667       -3.49148121493690
C           -3.87354868364554       -0.31730801552664       -0.23076186106588
O           -4.56168491091099       -1.47364521187803       -0.62097348240487
C           -3.23075861043027       -0.44988215033583        1.15955702968967
O           -4.14383100599055       -0.81445096533059        2.16458181392231
C           -2.50726459794943        0.85963626201018        1.52266508205717
O           -1.82934114847463        0.75174108503649        2.74312891563184
C            1.44277740420073        1.20803104274471        1.39553141382268
O            0.93026925413203        2.49645409966049        1.63469334440941
C            2.97131793478741        1.26570170582726        1.28094945529365
O            3.47890090703500        1.56980707634652        2.55332205187307
H            5.22321519439585       -1.48346341139772       -0.71673677559036
H            5.37673328575355       -1.91939343478474        1.00985856739197
H            6.61451504700216       -0.88435501887617        0.23350729928705
H            3.25649126896984       -0.88312795172845        1.46588396049975
H            1.34496095130850       -1.40405086843497        0.24663994069152
H            1.87221580989440       -1.54071796794528       -2.30710221620092
H            0.17322608498921       -1.55898806921982       -1.76539773473625
H           -0.10067282923277        0.32855137512011       -2.78486770211459
H            0.82542246668031        1.46293558228997       -0.64952322076531
H           -1.06354130608025        2.19885007716148        0.60331224626339
H           -1.97921055806652       -0.69982405928157       -1.19559477040677
H           -3.65301589466561        1.22885422111379       -2.78155448617194
H           -3.98844714125199       -0.53269326366304       -2.86337308616256
H           -2.35593631308782        0.19123939411216       -4.41380084717316
H           -4.62554122077412        0.48095326369289       -0.21675621065424
H           -3.99225077777974       -2.24974821548787       -0.51518246529565
H           -2.48008846784174       -1.24956607682235        1.14260831980337
H           -4.95045763630871       -0.28432281794871        2.08861345956621
H           -3.24450215004988        1.67949475351300        1.56776150425900
H           -2.39034353992596        0.24289471805598        3.35281923856508
H            1.17261608660789        0.53669624669015        2.22497107914168
H            1.35883231676846        2.84867387612101        2.43020757444892
H            3.24338008910050        2.04185826438925        0.55057164963072
H            4.44716327695103        1.58039628829938        2.51352941991484
