48
 energy: -84.738841085868 gnorm: 0.000361343345 xtb: 6.7.1 (edcfbbe)
C            5.75235934314482       -0.81495284732031        0.20345708387985
O            4.96808784608106        0.29630249334439        0.63449577779995
C            3.62728420455628        0.00796108306556        0.81149789193279
O            3.05606195395110       -0.35148593342863       -0.42201723695687
C            1.70382175580968       -0.74938996895821       -0.31154622711297
C            1.31404754908840       -1.35372564231219       -1.65355544448475
O           -0.09480202360126       -1.97886719852453       -1.42746260177697
C            0.85220546215953        0.46115956535728        0.18089373847907
O           -0.48872061306632       -0.00769453320938        0.35669070007649
C           -1.49025940957931        0.99294176219153        0.37942412841209
O           -2.14485951675460        1.10941601146571       -0.84638783232501
C           -2.97947018188984        0.01861065056128       -1.23791613874450
C           -3.63808943548738        0.42286863360959       -2.56460077594547
O           -4.80545369098833        1.17540091144149       -2.32050482370206
C           -4.01657601157114       -0.30985684763421       -0.15163795083879
O           -4.74298806885739       -1.47453693489597       -0.45958061716979
C           -3.29989318836045       -0.55480202844386        1.17890932353139
O           -4.21136709773033       -0.76957080858964        2.22875735824216
C           -2.46646902107274        0.67993174678971        1.52742226799407
O           -1.72861781765158        0.49947753405054        2.70343959663088
C            1.41609483824263        1.04809223221348        1.47877463993311
O            0.79810668745250        2.28643252042548        1.74995458123973
C            2.93798623427851        1.25860366187113        1.37353846674410
O            3.45965249533313        1.67320047971963        2.60721288864954
H            5.37970728573697       -1.19400001891380       -0.74892477161468
H            5.72520434412457       -1.60870275537856        0.95577201307687
H            6.76092920148207       -0.42817621191245        0.09558424077129
H            3.50094461075081       -0.84232495807324        1.52404703180635
H            1.63412747395228       -1.52111223839566        0.48117808087172
H            1.08520399546514       -0.51327212321365       -2.33860685070432
H           -0.50646546768087       -1.47498418707513       -0.68412665906607
H            0.06039217272626       -2.91271169669607       -1.17447163925423
H            0.86771640058508        1.24213936611568       -0.59224375556521
H           -1.02892897264781        1.96746363596900        0.55947928882755
H           -2.36660802506216       -0.87323182550804       -1.42063993165684
H           -2.89709065565835        1.00369199594018       -3.12171148284182
H           -3.88405753468219       -0.48637527008712       -3.12737700793330
H           -5.06324052576057        1.63811708715426       -3.12907080201364
H           -4.68374227432121        0.55357891872379       -0.03173844902846
H           -5.38815030204439       -1.27487579558822       -1.15143663418333
H           -2.63295418209474       -1.42415938324360        1.07993717429604
H           -4.83726294506047       -1.45552830241273        1.94976019965695
H           -3.14843418690523        1.53885724301336        1.62654557696544
H           -2.34489922075570        0.19990138723814        3.39117899661337
H            1.19211480280691        0.34069338981739        2.29470301233163
H            1.28693096042498        2.71530336170497        2.47118148892333
H            3.13375337776769        2.07952072102771        0.67480167037595
H            3.51180638949053        0.92325513489944        3.21858946956281
