48
 energy: -84.745162726136 gnorm: 0.000476409035 xtb: 6.7.1 (edcfbbe)
C            5.45347499173194       -1.32224054553272        0.49433989201287
O            4.84329100221059       -0.09452277720641        0.88856274232088
C            3.45644419667911       -0.11652810025767        0.86558646549451
O            3.00748122011680       -0.31762917670968       -0.44503696169369
C            1.60434210766007       -0.50056706147801       -0.54617471574680
C            1.38341359952451       -0.76085300000293       -2.03187769583734
O           -0.05683179540942       -1.38258020079231       -2.17981264565221
C            0.83082986978113        0.70649755550337        0.07051601035059
O           -0.47691158385973        0.21110504606407        0.32712245237693
C           -1.49089960504458        1.16841550628488        0.46232765482804
O           -2.20202117707946        1.24952678590349       -0.74745044227808
C           -2.76579791254175       -0.02218474014635       -1.08292066832418
C           -3.14178168769612        0.01280289094427       -2.56134667435619
O           -1.97440412157246        0.17908195688285       -3.34274062613295
C           -3.90455711546827       -0.33924108802935       -0.10903456448867
O           -4.53202169364095       -1.53765638952292       -0.49848424461715
C           -3.24572716008496       -0.47230240960464        1.28196817356106
O           -4.19051001225504       -0.64002833273383        2.31558962679137
C           -2.45378518741070        0.80216303701567        1.60590645947374
O           -1.71556879058927        0.66850525347780        2.78859778621999
C            1.43323135162924        1.25457396922253        1.37676042502760
O            0.95946737042255        2.57117831493509        1.56329348523539
C            2.96314005898720        1.24287480452338        1.36902821047874
O            3.40278791427522        1.52525918258632        2.67236713613921
H            5.15236738854976       -1.58250397852920       -0.52085674692403
H            5.16565446129184       -2.12128276766735        1.18364051434674
H            6.52271701221583       -1.14041617451126        0.54523363091064
H            3.06558186894716       -0.92627356224669        1.52254106259928
H            1.30878137336223       -1.38348947331384        0.04738204766967
H            1.29302300428391        0.22886184260969       -2.51886806711468
H           -0.67110844486583       -0.79709452161054       -2.71494143093605
H            0.09371847332045       -2.20340972399700       -2.69132705543953
H            0.79327733954526        1.53420657407718       -0.65207234572659
H           -1.07214589131889        2.16179002271945        0.64846303444706
H           -1.99614901525638       -0.79132361893236       -0.94185180479378
H           -3.85351593822555        0.81981666317960       -2.75144760436205
H           -3.57997875154127       -0.94501801424138       -2.84172649185049
H           -1.65118469722632        1.08046814111753       -3.20362331809870
H           -4.60903910381015        0.50056843143009       -0.09107033404241
H           -5.47221700937480       -1.51089473440899       -0.27502836041226
H           -2.54359966092311       -1.31682788950064        1.25630466012152
H           -4.56113763608030       -1.53290993408107        2.26646674472048
H           -3.17331385917898        1.63267878934650        1.69548966656033
H           -2.32330939974362        0.36876525070549        3.48439954049581
H            1.08591731654922        0.61374055093837        2.20250985472947
H            1.36008845959006        2.92267525292220        2.37351807453649
H            3.32625312783560        2.00180982336597        0.65842334544166
H            4.36709773366160        1.43051057040331        2.70247212604201
