48
 energy: -84.848569845982 gnorm: 0.000711871791 xtb: 6.7.1 (edcfbbe)
C            5.66577911381980       -0.84144712311921        0.31219827271930
O            4.87081959530323        0.28047293146958        0.68970759320040
C            3.52729788295910        0.00171903009281        0.86063282584195
O            2.96481037829070       -0.38348504742678       -0.37375346095028
C            1.58759411972504       -0.67798387278942       -0.30227643531282
C            1.15071255799038       -1.17544344157052       -1.69118327963115
O            1.46025341538455       -0.29984177351027       -2.73957622435755
C            0.77084613243222        0.53988709127313        0.17126243798574
O           -0.56488145105995        0.10059347187751        0.34415281917223
C           -1.55033278083887        1.10659616350637        0.33977898024051
O           -2.19332682368062        1.17960917442610       -0.90288274586394
C           -2.91792272634578        0.00358424595835       -1.25068304824257
C           -3.58374681204089        0.31518951137787       -2.59527314883095
O           -4.21143625761153       -0.84661627672238       -3.08435681981283
C           -3.95006876075095       -0.38583668478185       -0.17658886530840
O           -4.52783432951876       -1.63520282101857       -0.45017129814109
C           -3.28542336274754       -0.46870609513614        1.21228684932620
O           -4.20336305913441       -0.78612054385564        2.21937825661730
C           -2.54135335948501        0.84714980063441        1.48457101753481
O           -1.88047185236385        0.77386381495702        2.71747267781433
C            1.34815520376689        1.03399962873693        1.50998233314130
O            0.68332113086935        2.20492123371049        1.92567918699211
C            2.85222716497657        1.28128545202041        1.37292619396965
O            3.33235196143704        1.66609502904644        2.63267938653866
H            5.34159748037663       -1.22883667741332       -0.65416045518404
H            5.59367870962671       -1.62643629181282        1.07004275782365
H            6.68261269187746       -0.46568436042756        0.25001514019531
H            3.38139702484090       -0.81799385894472        1.59752431580541
H            1.40791053017954       -1.48629687955519        0.42394758557456
H            1.69333399695492       -2.09492569492875       -1.91580188707567
H            0.07555223863636       -1.38722465189725       -1.64636269282865
H            0.99508352504008        0.53959155438437       -2.62332408331823
H            0.81774527806584        1.35524773594706       -0.56092593638603
H           -1.09109261375093        2.09392886551132        0.47140730697322
H           -2.22554332885765       -0.84229468984326       -1.36779884624870
H           -4.30897866508518        1.12412226921346       -2.44172846626006
H           -2.80558251190927        0.66720601210991       -3.28061139280358
H           -4.58669188328247       -0.66827949032208       -3.95902162536581
H           -4.73245810997337        0.39428622000361       -0.13963343727845
H           -4.72199621878074       -1.68646379018413       -1.40348216210975
H           -2.56161975734204       -1.28922827432641        1.21662064914799
H           -4.88690247771544       -0.10144072075927        2.27238271776741
H           -3.27014793825840        1.67672650015403        1.48875794693132
H           -1.19483726376042        1.46189791865712        2.74745047011456
H            1.18936199280884        0.24220754579033        2.25921987392175
H            1.23134417132307        2.61886528245035        2.61354352365313
H            3.03131621567929        2.07021257905636        0.62663732991726
H            4.29560384483446        1.76305202071371        2.59162687708042
