48
 energy: -84.818410168843 gnorm: 0.000266848084 xtb: 6.7.1 (edcfbbe)
C            5.74807607506387       -0.82338936614530        0.07962862006830
O            4.94020866984872        0.27757062542903        0.49093566690181
C            3.64057847166161       -0.05910956233305        0.81134734118088
O            2.97501313112864       -0.47691234851289       -0.36275229359192
C            1.62692427504082       -0.83419762445617       -0.15305639884507
C            1.08530390287309       -1.40252634746714       -1.46507850004924
O            1.52443825288741       -2.73301911778698       -1.58954655442861
C            0.83343070721490        0.39369338465802        0.31715692283760
O           -0.50846759048697       -0.00487138650385        0.53530633564807
C           -1.47238464834803        1.02085010419982        0.53425140350654
O           -2.13604687359705        1.06116662917990       -0.70294573058478
C           -2.90685961414891       -0.06168032947529       -0.98878707041509
C           -2.80029202917262       -0.65092052222693       -2.16795028579657
O           -5.76785001084587        3.29351650039699       -4.65796920749967
C           -3.89073440747598       -0.46543540952448        0.09608053878956
O           -4.52848625683979       -1.68731264146544       -0.15631345307193
C           -3.15202396260806       -0.57033260883234        1.44088954477674
O           -3.98279301107411       -0.90345390322491        2.52012618998944
C           -2.44045439119021        0.76697680409581        1.69393863759600
O           -1.70805463426253        0.76327133431911        2.89003705245671
C            1.46396539590096        0.88880937851457        1.63992732464633
O            0.84885273443189        2.05471775136808        2.13233144787341
C            2.96023238019995        1.17939490577928        1.43053374179401
O            3.59313174307330        1.58126995872398        2.60892711415911
H            5.32582108937782       -1.29561045266414       -0.80858343198469
H            5.82573142639225       -1.55792500744419        0.88645809159480
H            6.72252680757675       -0.39789429528895       -0.13950222725928
H            3.61949509591158       -0.89651214803096        1.54575994481743
H            1.55811724987083       -1.61895333501757        0.61562044453692
H            1.46523006833639       -0.78157299814608       -2.28426475382692
H           -0.00965224777119       -1.35394120514280       -1.42889277165126
H            1.22659341395035       -3.08898518306821       -2.43924503964487
H            0.88402979275472        1.18311353068056       -0.44204733280055
H           -1.00185108125920        2.00506691994895        0.63143849257914
H           -2.09009100210187       -0.29672733940369       -2.89158671479578
H           -4.80894122743072        3.21288536918902       -4.67276105002359
H           -3.41461611029170       -1.48988651598102       -2.43013180571391
H           -6.08525799356953        2.75461409904707       -3.92652980603251
H           -4.63457834463387        0.34710761933941        0.19159847981547
H           -5.14118826533502       -1.59202517377764       -0.89891653895816
H           -2.40360938508170       -1.36737403547526        1.37896118701497
H           -4.81981645640849       -0.41904356272778        2.46480890447451
H           -3.18228250952946        1.58322895367877        1.71200185281917
H           -2.19197007988854        0.22291776112890        3.53760758333230
H            1.36147989413147        0.07373842627299        2.37147346643219
H            0.06406937281857        1.80718366489460        2.65079444093237
H            3.07738965159438        2.01814002943187        0.73826996360600
H            3.48766847200885        0.90633877719753        3.29675868842359
