48
 energy: -84.735339422571 gnorm: 0.000834198716 xtb: 6.7.1 (edcfbbe)
C            5.77171901647598       -0.75204963647605        0.38524196381596
O            4.94246960581356        0.30744621998703        0.85936948692117
C            3.59426182639813       -0.00659634448005        0.91177708819141
O            3.11167100096103       -0.24345827901031       -0.38368283330738
C            1.75214812139189       -0.62953448976309       -0.43642877446780
C            1.50950712867130       -0.93528126999364       -1.91299717009663
O            0.01594855992220       -1.36532997919401       -1.99423665731633
C            0.85576896821419        0.50396099917999        0.16579411465960
O           -0.47950174524336        0.00631638091524        0.28608002692999
C           -1.48875851341747        0.99915602466375        0.36777275045297
O           -2.09273065145883        1.12801264448491       -0.88479740953435
C           -2.89907550014353       -0.00498065205342       -1.22866180345271
C           -3.25892621514743        0.10798760787690       -2.71537074240304
O           -2.33022898583499       -0.60080832699398       -3.51013323538975
C           -4.09194783432491       -0.07602051437156       -0.25699392926638
O           -5.04977398567973       -1.01818511947558       -0.65197794623895
C           -3.50470586930218       -0.37484978325251        1.13894275289650
O           -4.49949827384330       -0.53952410831931        2.11006058673047
C           -2.49531457954958        0.72654690384710        1.50447462352194
O           -1.83012416586355        0.37497216307982        2.68609844746798
C            1.37003741580191        0.87191071795504        1.56799597151175
O            0.63648964022605        1.95120860123914        2.11111807840939
C            2.86158260205569        1.19437754911127        1.52165468701387
O            3.27973959899646        1.47666642177060        2.83050440910568
H            5.46624164897985       -1.04976925001910       -0.61832027294455
H            5.70690742349829       -1.60917315714724        1.06143568394789
H            6.77910568671956       -0.34731377163230        0.37719248168471
H            3.42501144050655       -0.90864303849493        1.54146637666010
H            1.59442439385428       -1.52877971849980        0.18377658273388
H            1.54011945269178        0.05072972883899       -2.42619819952213
H           -0.37571853906594       -1.04869861309568       -2.84152271539740
H           -0.44887317908400       -0.90680934345348       -1.25184505183680
H            0.87776514638766        1.38579513552483       -0.48631873394794
H           -1.01918402569099        1.97109315833194        0.55895422177527
H           -2.32458021073462       -0.93051695289330       -1.08804738465360
H           -3.19747118693423        1.16055078459777       -3.00010261197252
H           -4.27883083782024       -0.24940977527424       -2.86419724943022
H           -2.67979285759651       -1.48011279796587       -3.71164261424726
H           -4.60204679086145        0.89476904451777       -0.25092135065888
H           -4.81440285672006       -1.89557750951831       -0.31602033341034
H           -2.97256706271840       -1.33355793122441        1.12252165284526
H           -4.98305315147707        0.28843281038902        2.24212157122975
H           -3.05811204509545        1.66616657318046        1.64606028729846
H           -1.09732663990501        0.99836086210578        2.82574739177252
H            1.23095068823982       -0.01214611431909        2.21233313421331
H            1.16782618105557        2.32416107001190        2.83408907158874
H            3.03684982329492        2.05600517881826        0.85884583562432
H            4.24378733472051        1.57259289774340        2.83911684078903
