48
 energy: -84.845672621295 gnorm: 0.000727099911 xtb: 6.7.1 (edcfbbe)
C            5.74977690375403       -0.74862971418650        0.05526664618512
O            4.93097539177090        0.33831293259598        0.46837727094527
C            3.65945489203992       -0.01475950425874        0.86601127284615
O            2.88339329969444       -0.28422267772772       -0.28538190242851
C            1.55323796397710       -0.66819228301005        0.00313866315401
C            0.93098244637956       -1.11389243340648       -1.32468165301657
O            1.73219217879081       -2.04382362758887       -1.99612424979269
C            0.80497226579667        0.50127736124270        0.66818520083683
O           -0.52342768905541        0.12845703529492        1.01742343912739
C           -1.52924052547323        1.02481603402771        0.62868321146264
O           -1.75776837114172        1.06859272355390       -0.75181658116620
C           -2.44922319626226       -0.03245748049997       -1.33365160391149
C           -2.74373951031129        0.37258717895262       -2.78903012452021
O           -3.31403142689682       -0.67767364995962       -3.52813590206264
C           -3.74230653888778       -0.39442445699179       -0.58684816274529
O           -4.29960683698824       -1.58827253697584       -1.07422777088129
C           -3.42304874441267       -0.59337542084746        0.89797700340764
O           -4.57855131308859       -0.86271811808111        1.65181364292252
C           -2.80631487503649        0.70276065992051        1.42329057225461
O           -2.49941517571168        0.64194847939342        2.78429689554015
C            1.56292954212941        0.95310143691442        1.92949962743306
O            1.02570901863692        2.12140144482036        2.49699924521843
C            3.06451447480995        1.15641141977436        1.65649692493337
O            3.77111583012460        1.26626382120085        2.86190974447588
H            5.32991984071591       -1.24432247704899       -0.82215356992713
H            5.86222395874008       -1.47271461808971        0.86793390616776
H            6.71366093760183       -0.31031722600677       -0.18882459882808
H            3.67308988696865       -0.91403038899642        1.51703881810502
H            1.56433043965317       -1.51926958754874        0.70380046977980
H            0.74839574864460       -0.22901363865038       -1.94965793134184
H           -0.01012181512610       -1.62073258318031       -1.11295210807047
H            2.62094370995369       -1.67009390531271       -2.06801523965935
H            0.77192230197454        1.33145235572924       -0.05308553502808
H           -1.22242148236591        2.05202613545440        0.88076371511937
H           -1.81353284010354       -0.92881800566456       -1.32029070830286
H           -1.81855009061783        0.73867154089527       -3.24381129930210
H           -3.47243107862256        1.18666461635644       -2.78903844055628
H           -2.62927441236268       -1.31259974684096       -3.77618745111452
H           -4.46556724731666        0.43335025527494       -0.67817391095091
H           -4.38578494425167       -1.50969123446082       -2.04033244039451
H           -2.69435872600058       -1.41147817416474        1.00818026360166
H           -5.06249744578150       -1.57179264739763        1.20629892101188
H           -3.52485912428322        1.51972496541993        1.23296193883297
H           -3.24256784808379        0.20455581813557        3.22638436042729
H            1.43494518681567        0.18185926724624        2.69721434677975
H            1.11059249874713        2.85689864416111        1.87369113328032
H            3.20689364221042        2.06094863188528        1.04089534930926
H            3.30246357716052        1.89522910589855        3.43137375969922
