48
cell 100,-150 xtb/ALPB scan2 frame
C 5.584898 -1.231628 0.417986
O 4.888799 -0.043299 0.784265
C 3.514153 -0.173289 0.869550
O 2.978278 -0.410301 -0.414403
C 1.576651 -0.595392 -0.407859
C 1.150060 -0.845075 -1.861489
O 1.386167 -2.161490 -2.276611
C 0.825546 0.606228 0.191564
O -0.507578 0.167287 0.402288
C -1.515603 1.143721 0.332286
O -2.158647 1.131257 -0.912574
C -2.799540 -0.102562 -1.237175
C -3.450684 0.088925 -2.612764
O -2.506193 0.306256 -3.626830
C -3.840014 -0.492440 -0.177992
O -4.437161 -1.733905 -0.449845
C -3.190298 -0.484284 1.213842
O -4.141362 -0.698385 2.229873
C -2.531165 0.876697 1.458377
O -1.867249 0.928805 2.688487
C 1.438902 1.106953 1.506865
O 0.930623 2.396056 1.745586
C 2.970793 1.145673 1.434036
O 3.450003 1.389649 2.729530
H 5.326679 -1.528099 -0.598796
H 5.345979 -2.040693 1.113563
H 6.639100 -0.978067 0.480104
H 3.234181 -1.013147 1.540778
H 1.322465 -1.477152 0.202609
H 1.676436 -0.125424 -2.498558
H 0.075139 -0.686405 -1.951570
H 2.339676 -2.323643 -2.292912
H 0.841009 1.440106 -0.523169
H -1.095037 2.147202 0.448588
H -2.037249 -0.894047 -1.296305
H -4.155617 0.925995 -2.548383
H -3.993352 -0.818770 -2.880927
H -2.049675 1.139170 -3.443235
H -4.659837 0.235038 -0.185255
H -3.752814 -2.412389 -0.553680
H -2.404975 -1.256063 1.258703
H -4.736849 -1.411586 1.952285
H -3.306530 1.657340 1.404069
H -2.481522 0.614907 3.371959
H 1.138198 0.424179 2.314797
H 1.292523 2.717344 2.585582
H 3.273531 1.947246 0.743573
H 4.419157 1.401497 2.712674
