48
cell (60, 50) s_153 rnd143 xtb E -84.859272199
C 5.457549 0.589488 1.268988
O 4.632572 0.696058 0.112032
C 3.280097 0.510185 0.335226
O 3.044073 -0.822175 0.738151
C 1.674366 -1.108300 0.963329
C 1.601621 -2.564055 1.449676
O 1.964071 -2.700572 2.796839
C 0.859801 -0.898240 -0.325902
O -0.501368 -1.282554 -0.212383
C -1.285563 -0.825172 0.869252
O -1.417353 0.557777 0.964355
C -2.124489 1.180206 -0.109630
C -2.155573 2.678439 0.177460
O -0.859467 3.205097 0.010421
C -3.537626 0.602099 -0.233385
O -4.190477 1.235656 -1.300397
C -3.423843 -0.909712 -0.455645
O -4.725802 -1.437497 -0.549669
C -2.646664 -1.537166 0.709195
O -2.488909 -2.918038 0.534812
C 1.060173 0.535807 -0.839990
O 0.417026 0.655565 -2.085716
C 2.561740 0.808192 -0.987312
O 2.717491 2.147279 -1.370007
H 5.453427 -0.432610 1.648096
H 5.112099 1.275923 2.046551
H 6.454574 0.863977 0.936831
H 2.906784 1.198895 1.123602
H 1.293439 -0.430615 1.744209
H 2.244881 -3.168954 0.800992
H 0.574783 -2.924283 1.374503
H 2.897765 -2.468572 2.898745
H 1.236861 -1.577729 -1.100113
H -0.833539 -1.120024 1.827121
H -1.595852 1.007535 -1.055751
H -2.862449 3.132010 -0.525322
H -2.502627 2.823670 1.208059
H -0.891171 4.165536 0.128041
H -4.086846 0.775817 0.706680
H -5.000385 0.737324 -1.494384
H -2.870406 -1.087730 -1.391734
H -4.677900 -2.401647 -0.460630
H -3.222653 -1.408102 1.631561
H -1.861119 -3.064539 -0.190325
H 0.645584 1.264434 -0.128390
H 0.669728 1.511781 -2.465152
H 2.978020 0.131563 -1.749610
H 3.662905 2.348663 -1.440697
