      -----------------------------------------------------------      
     |                   =====================                   |     
     |                           x T B                           |     
     |                   =====================                   |     
     |                         S. Grimme                         |     
     |          Mulliken Center for Theoretical Chemistry        |     
     |                    University of Bonn                     |     
      -----------------------------------------------------------      

   * xtb version 6.7.1 (edcfbbe) compiled by 'conda@5dfe00f5fb80' on 2026-06-10

   xtb is free software: you can redistribute it and/or modify it under
   the terms of the GNU Lesser General Public License as published by
   the Free Software Foundation, either version 3 of the License, or
   (at your option) any later version.
   
   xtb is distributed in the hope that it will be useful,
   but WITHOUT ANY WARRANTY; without even the implied warranty of
   MERCHANTABILITY or FITNESS FOR A PARTICULAR PURPOSE.  See the
   GNU Lesser General Public License for more details.
   
   Cite this work as:
   * C. Bannwarth, E. Caldeweyher, S. Ehlert, A. Hansen, P. Pracht,
     J. Seibert, S. Spicher, S. Grimme, WIREs Comput. Mol. Sci., 2020, 11,
     e01493. DOI: 10.1002/wcms.1493
   
   for GFN2-xTB:
   * C. Bannwarth, S. Ehlert and S. Grimme., J. Chem. Theory Comput., 2019,
     15, 1652-1671. DOI: 10.1021/acs.jctc.8b01176
   for GFN1-xTB:
   * S. Grimme, C. Bannwarth, P. Shushkov, J. Chem. Theory Comput., 2017,
     13, 1989-2009. DOI: 10.1021/acs.jctc.7b00118
   for GFN0-xTB:
   * P. Pracht, E. Caldeweyher, S. Ehlert, S. Grimme, ChemRxiv, 2019, preprint.
     DOI: 10.26434/chemrxiv.8326202.v1
   for GFN-FF:
   * S. Spicher and S. Grimme, Angew. Chem. Int. Ed., 2020, 59, 15665-15673.
     DOI: 10.1002/anie.202004239
   
   for ALPB and GBSA implicit solvation:
   * S. Ehlert, M. Stahn, S. Spicher, S. Grimme, J. Chem. Theory Comput.,
     2021, 17, 4250-4261. DOI: 10.1021/acs.jctc.1c00471
   
   for ddCOSMO and CPCM-X implicit solvation:
   * M. Stahn, S. Ehlert, S. Grimme, J. Phys. Chem. A,
     2023, XX, XXXX-XXXX. DOI: 10.1021/acs.jpca.3c04382
   
   for DFT-D4:
   * E. Caldeweyher, C. Bannwarth and S. Grimme, J. Chem. Phys., 2017,
     147, 034112. DOI: 10.1063/1.4993215
   * E. Caldeweyher, S. Ehlert, A. Hansen, H. Neugebauer, S. Spicher,
     C. Bannwarth and S. Grimme, J. Chem. Phys., 2019, 150, 154122.
     DOI: 10.1063/1.5090222
   * E. Caldeweyher, J.-M. Mewes, S. Ehlert and S. Grimme, Phys. Chem. Chem. Phys.
     2020, 22, 8499-8512. DOI: 10.1039/D0CP00502A
   
   for sTDA-xTB:
   * S. Grimme and C. Bannwarth, J. Chem. Phys., 2016, 145, 054103.
     DOI: 10.1063/1.4959605
   
   in the mass-spec context:
   * V. Asgeirsson, C. Bauer and S. Grimme, Chem. Sci., 2017, 8, 4879.
     DOI: 10.1039/c7sc00601b
   * J. Koopman and S. Grimme, ACS Omega 2019, 4, 12, 15120-15133.
     DOI: 10.1021/acsomega.9b02011
   
   for metadynamics refer to:
   * S. Grimme, J. Chem. Theory Comput., 2019, 155, 2847-2862
     DOI: 10.1021/acs.jctc.9b00143
   
   for SPH calculations refer to:
   * S. Spicher and S. Grimme, J. Chem. Theory Comput., 2021, 17, 1701-1714
     DOI: 10.1021/acs.jctc.0c01306
   
   for ONIOM refer to:
   * C. Plett, A. Katbashev, S. Ehlert, S. Grimme, M. Bursch,
     Phys. Chem. Chem. Phys., 2023, 25, 17860-17868. DOI: 10.1039/D3CP02178E
   
   for DIPRO refer to:
   * J. Kohn, N. Gildemeister, S. Grimme, D. Fazzi, A. Hansen,
     J. Chem. Phys., 2023, just accepted.
   
   for PTB refer to:
   * S. Grimme, M. Mueller, A. Hansen, J. Chem. Phys., 2023, 158, 124111.
     DOI: 10.1063/5.0137838
   
   with help from (in alphabetical order)
   P. Atkinson, C. Bannwarth, F. Bohle, G. Brandenburg, E. Caldeweyher
   M. Checinski, S. Dohm, S. Ehlert, S. Ehrlich, I. Gerasimov, C. Hölzer
   A. Katbashev, J. Kohn, J. Koopman, C. Lavigne, S. Lehtola, F. März, M. Müller,
   F. Musil, H. Neugebauer, J. Pisarek, C. Plett, P. Pracht, F. Pultar,
   J. Seibert, P. Shushkov, S. Spicher, M. Stahn, M. Steiner, T. Strunk,
   J. Stückrath, T. Rose, and J. Unsleber
   
 * started run on 2026/09/21 at 15:44:30.832     
   ID    Z sym.   atoms
    1    6 C      1, 3, 5, 6, 8, 10, 12, 13, 15, 17, 19, 21, 23
    2    8 O      2, 4, 7, 9, 11, 14, 16, 18, 20, 22, 24
    3    1 H      25-48
constraining angle 11 10 9 8 to  -30.0000000°, actual value:  -30.0779977°
constraining angle 10 9 8 5 to -120.0000000°, actual value: -121.2332235°

           -------------------------------------------------
          |                Calculation Setup                |
           -------------------------------------------------

          program call               : /media/aldo/Aldo/envs/chem/bin/xtb start.xyz --gfn 2 --alpb water --opt normal --input c.inp
          coordinate file            : start.xyz
          omp threads                :                     1


           -------------------------------------------------
          |                 G F N 2 - x T B                 |
           -------------------------------------------------

        Reference                      10.1021/acs.jctc.8b01176
      * Hamiltonian:
        H0-scaling (s, p, d)           1.850000    2.230000    2.230000
        zeta-weighting                 0.500000
      * Dispersion:
        s8                             2.700000
        a1                             0.520000
        a2                             5.000000
        s9                             5.000000
      * Repulsion:
        kExp                           1.500000    1.000000
        rExp                           1.000000
      * Coulomb:
        alpha                          2.000000
        third order                    shell-resolved
        anisotropic                    true
        a3                             3.000000
        a5                             4.000000
        cn-shift                       1.200000
        cn-exp                         4.000000
        max-rad                        5.000000

      * Solvation model:               ALPB
        Solvent                        water
        Parameter file                 internal GFN2-xTB/ALPB
        Dielectric constant                8.0200E+01
        Reference state                gsolv [1 M gas/solution]
        Free energy shift                  1.0808E-03 Eh       6.7819E-01 kcal/mol
        Temperature                        2.9815E+02 K
        Density                            1.0000E+00 kg/L
        Solvent mass                       1.8000E+01 g/mol
        Interaction kernel             P16
        Born radius scaling (c1)           1.4744E+00
        Born radii integrator          GBOBC
        Born offset                        0.0000E+00 a0       0.0000E+00 AA
        H-bond correction              true
        Ion screening                  false
        Surface tension                    1.0000E-05 Eh       1.5569E+01 dyn/cm
        Grid points                               230 per atom

          ...................................................
          :                      SETUP                      :
          :.................................................:
          :  # basis functions                 120          :
          :  # atomic orbitals                 120          :
          :  # shells                           72          :
          :  # electrons                       142          :
          :  max. iterations                   250          :
          :  Hamiltonian                  GFN2-xTB          :
          :  restarted?                      false          :
          :  GBSA solvation                   true          :
          :  PC potential                    false          :
          :  electronic temp.          300.0000000     K    :
          :  accuracy                    1.0000000          :
          :  -> integral cutoff          0.2500000E+02      :
          :  -> integral neglect         0.1000000E-07      :
          :  -> SCF convergence          0.1000000E-05 Eh   :
          :  -> wf. convergence          0.1000000E-03 e    :
          :  Broyden damping             0.4000000          :
          :  net charge                          0          :
          :  unpaired electrons                  0          :
          ...................................................

 iter      E             dE          RMSdq      gap      omega  full diag
   1    -85.3553643 -0.853554E+02  0.479E+00    9.44       0.0  T
   2    -85.4482963 -0.929319E-01  0.253E+00    9.18       1.0  T
   3    -85.4519291 -0.363289E-02  0.706E-01    9.24       1.0  T
   4    -85.4527663 -0.837156E-03  0.170E-01    9.24       1.0  T
   5    -85.4528907 -0.124437E-03  0.809E-02    9.26       1.0  T
   6    -85.4529188 -0.281085E-04  0.198E-02    9.26       1.0  T
   7    -85.4529206 -0.171665E-05  0.766E-03    9.26       1.9  T
   8    -85.4529210 -0.409420E-06  0.229E-03    9.26       6.3  T
   9    -85.4529210 -0.286653E-07  0.112E-03    9.26      12.9  T
  10    -85.4529210 -0.617975E-08  0.335E-04    9.26      43.0  T
  11    -85.4529210 -0.877861E-09  0.114E-04    9.26     126.8  T

   *** convergence criteria satisfied after 11 iterations ***

         #    Occupation            Energy/Eh            Energy/eV
      -------------------------------------------------------------
         1        2.0000           -0.7402194             -20.1424
       ...           ...                  ...                  ...
        65        2.0000           -0.4293761             -11.6839
        66        2.0000           -0.4289916             -11.6735
        67        2.0000           -0.4267980             -11.6138
        68        2.0000           -0.4230192             -11.5109
        69        2.0000           -0.4193530             -11.4112
        70        2.0000           -0.4172203             -11.3531
        71        2.0000           -0.4040975             -10.9961 (HOMO)
        72                         -0.0636973              -1.7333 (LUMO)
        73                         -0.0458018              -1.2463
        74                         -0.0190129              -0.5174
        75                         -0.0082990              -0.2258
        76                         -0.0003952              -0.0108
       ...                                ...                  ...
       120                          0.3102195               8.4415
      -------------------------------------------------------------
                  HL-Gap            0.3404002 Eh            9.2628 eV
             Fermi-level           -0.2338974 Eh           -6.3647 eV

 SCC (total)                   0 d,  0 h,  0 min,  0.496 sec
 SCC setup                      ...        0 min,  0.002 sec (  0.474%)
 Dispersion                     ...        0 min,  0.001 sec (  0.228%)
 classical contributions        ...        0 min,  0.000 sec (  0.051%)
 integral evaluation            ...        0 min,  0.037 sec (  7.472%)
 iterations                     ...        0 min,  0.234 sec ( 47.126%)
 molecular gradient             ...        0 min,  0.217 sec ( 43.762%)
 printout                       ...        0 min,  0.001 sec (  0.242%)

         :::::::::::::::::::::::::::::::::::::::::::::::::::::
         ::                     SUMMARY                     ::
         :::::::::::::::::::::::::::::::::::::::::::::::::::::
         :: total energy             -84.834697391755 Eh    ::
         :: total w/o Gsasa/hb       -84.813126140345 Eh    ::
         :: gradient norm              0.000504615283 Eh/a0 ::
         :: HOMO-LUMO gap              9.262759993523 eV    ::
         ::.................................................::
         :: SCC energy               -85.451742330887 Eh    ::
         :: -> isotropic ES            0.287490725312 Eh    ::
         :: -> anisotropic ES         -0.009688721827 Eh    ::
         :: -> anisotropic XC         -0.015719889503 Eh    ::
         :: -> dispersion             -0.047107684017 Eh    ::
         :: -> Gsolv                  -0.052345199209 Eh    ::
         ::    -> Gelec               -0.030773947799 Eh    ::
         ::    -> Gsasa                0.007759934995 Eh    ::
         ::    -> Ghb                 -0.030411946103 Eh    ::
         ::    -> Gshift               0.001080759698 Eh    ::
         :: repulsion energy           0.616928661696 Eh    ::
         :: add. restraining           0.000116277436 Eh    ::
         :: total charge               0.000000000000 e     ::
         :::::::::::::::::::::::::::::::::::::::::::::::::::::

      ----------------------------------------------------------- 
     |                   =====================                   |
     |                        A N C O P T                        |
     |                   =====================                   |
     |               Approximate Normal Coordinate               |
     |                Rational Function Optimizer                |
      ----------------------------------------------------------- 
      ----------------------------------------------------------- 
     |                   =====================                   |
     |                        A N C O P T                        |
     |                   =====================                   |
     |               Approximate Normal Coordinate               |
     |                Rational Function Optimizer                |
      ----------------------------------------------------------- 

          ...................................................
          :                      SETUP                      :
          :.................................................:
          :   optimization level            normal          :
          :   max. optcycles                   200          :
          :   ANC micro-cycles                  20          :
          :   degrees of freedom               138          :
          :.................................................:
          :   RF solver                   davidson          :
          :   write xtbopt.log                true          :
          :   linear?                        false          :
          :   energy convergence         0.5000000E-05 Eh   :
          :   grad. convergence          0.1000000E-02 Eh/α :
          :   maxmium RF displ.          1.0000000          :
          :   Hlow (freq-cutoff)         0.1000000E-01      :
          :   Hmax (freq-cutoff)         5.0000000          :
          :   S6 in model hess.         20.0000000          :
          ...................................................

generating ANC from exact Hessian ...
Using Lindh-Hessian (1995)
 Shifting diagonal of input Hessian by    9.6443883614908740E-003
 Lowest  eigenvalues of input Hessian
    0.000000    0.000000    0.000000    0.000000    0.000000    0.000000
    0.010000    0.010207    0.010731    0.010930    0.011860    0.012438
    0.013472    0.013887    0.014483    0.014793    0.015042    0.015436
 Highest eigenvalues
    1.533699    1.552696    1.584171    1.676653    1.723047    1.920326


........................................................................
.............................. CYCLE    1 ..............................
........................................................................

 iter      E             dE          RMSdq      gap      omega  full diag
   1    -85.4529210 -0.854529E+02  0.554E-05    9.26       0.0  T
   2    -85.4529210 -0.835598E-11  0.359E-05    9.26     401.6  T
   3    -85.4529210 -0.503064E-11  0.906E-06    9.26    1593.3  T
     SCC iter.                  ...        0 min,  0.036 sec
     gradient                   ...        0 min,  0.109 sec
 * total energy  :   -84.8346974 Eh     change       -0.8354561E-10 Eh
   gradient norm :     0.0005026 Eh/α   predicted     0.0000000E+00 (-100.00%)
   displ. norm   :     0.0121971 α      lambda       -0.2247503E-06
   maximum displ.:     0.0078502 α      in ANC's #1, #10, #2, ...

   *** GEOMETRY OPTIMIZATION CONVERGED AFTER 1 ITERATIONS ***

------------------------------------------------------------------------
 total energy gain   :        -0.0000000 Eh       -0.0000 kcal/mol
 total RMSD          :         0.0000000 a0        0.0000 Å
 total power (kW/mol):        -0.0000002 (step)   -0.0000 (real)
------------------------------------------------------------------------

 ANCopt (total)                0 d,  0 h,  0 min,  0.322 sec
 optimizer setup                ...        0 min,  0.000 sec (  0.060%)
 model hessian                  ...        0 min,  0.127 sec ( 39.628%)
 ANC generation                 ...        0 min,  0.008 sec (  2.441%)
 coordinate transformation      ...        0 min,  0.000 sec (  0.023%)
 single point calculation       ...        0 min,  0.184 sec ( 57.318%)
 optimization log               ...        0 min,  0.000 sec (  0.154%)
 hessian update                 ...        0 min,  0.000 sec (  0.001%)
 rational function              ...        0 min,  0.000 sec (  0.078%)

================
 final structure:
================
48
 xtb: 6.7.1 (edcfbbe)
C            5.13858200000000       -0.15067700000000       -1.60355100000000
O            4.09412200000000        0.80782200000000       -1.46557500000000
C            3.33552700000000        0.68390900000000       -0.31860300000000
O            2.50436100000000       -0.45215800000000       -0.44908800000000
C            1.62895500000000       -0.65501300000000        0.64872900000000
C            0.96222300000000       -2.01347400000000        0.43411900000000
O            1.88228600000000       -3.06934900000000        0.48735000000000
C            0.63508700000000        0.51802100000000        0.74171700000000
O           -0.23513700000000        0.39135100000000        1.85289000000000
C           -1.64704100000000        0.33683400000000        1.72673800000000
O           -2.15420700000000        1.03742000000000        0.63530200000000
C           -2.50661800000000        0.36492400000000       -0.57598600000000
C           -3.22894700000000        1.42626300000000       -1.42419200000000
O           -2.44384300000000        2.57845700000000       -1.58809400000000
C           -3.39950400000000       -0.84865600000000       -0.30882900000000
O           -3.80982400000000       -1.49243800000000       -1.48554500000000
C           -2.64175600000000       -1.80471900000000        0.61921000000000
O           -3.43835000000000       -2.90355800000000        0.99617500000000
C           -2.26189500000000       -1.07807600000000        1.91822700000000
O           -1.38194800000000       -1.84053600000000        2.69849500000000
C            1.42748700000000        1.82740600000000        0.91116600000000
O            0.59887200000000        2.96102100000000        0.91133400000000
C            2.51142100000000        1.96881500000000       -0.17132900000000
O            3.40134200000000        3.00378400000000        0.14902700000000
H            4.72757800000000       -1.15545000000000       -1.70957200000000
H            5.80721800000000       -0.11135200000000       -0.73968900000000
H            5.67194900000000        0.13506900000000       -2.50527300000000
H            3.97758600000000        0.56641000000000        0.57836100000000
H            2.20765700000000       -0.69114500000000        1.58449400000000
H            0.45426500000000       -2.00147100000000       -0.53974700000000
H            0.25319500000000       -2.18071900000000        1.24593700000000
H            2.57279200000000       -2.90865900000000       -0.17135900000000
H            0.07702200000000        0.58035700000000       -0.19760900000000
H           -1.95943900000000        0.92728400000000        2.60237000000000
H           -1.60565300000000        0.02983800000000       -1.11259700000000
H           -4.18380600000000        1.66815000000000       -0.94625400000000
H           -3.41881300000000        1.02710400000000       -2.42103400000000
H           -2.39028500000000        3.02210200000000       -0.72970500000000
H           -4.32228100000000       -0.52421700000000        0.18446400000000
H           -3.04078400000000       -1.77323800000000       -2.00444400000000
H           -1.73428600000000       -2.16348200000000        0.11096200000000
H           -3.94229800000000       -3.20767700000000        0.22541500000000
H           -3.20917800000000       -0.92560600000000        2.45979900000000
H           -1.82500100000000       -2.67383300000000        2.92421500000000
H            1.89995200000000        1.81788600000000        1.89930200000000
H            0.08968100000000        2.98962000000000        0.08676600000000
H            2.03562400000000        2.15781300000000       -1.14755600000000
H            2.88611200000000        3.79784100000000        0.36654800000000

 Bond Distances (Angstroems)
 ---------------------------
C1-O2=1.4243         C1-H25=1.0907        C1-H26=1.0931        C1-H27=1.0859        O2-C1=1.4243         O2-C3=1.3807         
C3-O2=1.3807         C3-O4=1.4137         C3-C23=1.5336        C3-H28=1.1093        O4-C3=1.4137         O4-C5=1.4187         
C5-O4=1.4187         C5-C6=1.5284         C5-C8=1.5403         C5-H29=1.1008        C6-C5=1.5284         C6-O7=1.4015         
C6-H30=1.0984        C6-H31=1.0908        O7-C6=1.4015         O7-H32=0.9677        C8-C5=1.5403         C8-O9=1.4171         
C8-C21=1.5398        C8-H33=1.0944        O9-C8=1.4171         O9-C10=1.4186        C10-O9=1.4186        C10-O11=1.3926       
C10-C19=1.5546       C10-H34=1.1013       O11-C10=1.3926       O11-C12=1.4296       C12-O11=1.4296       C12-C13=1.5387       
C12-C15=1.5302       C12-H35=1.1009       C13-C12=1.5387       C13-O14=1.4039       C13-H36=1.0948       C13-H37=1.0904       
O14-C13=1.4039       O14-H38=0.9677       C15-C12=1.5302       C15-O16=1.4027       C15-C17=1.5328       C15-H39=1.0955       
O16-C15=1.4027       O16-H40=0.9693       C17-C15=1.5328       C17-O18=1.4086       C17-C19=1.5361       C17-H41=1.1002       
O18-C17=1.4086       O18-H42=0.9698       C19-C10=1.5546       C19-C17=1.5361       C19-O20=1.4016       C19-H43=1.1018       
O20-C19=1.4016       O20-H44=0.9704       C21-C8=1.5398        C21-O22=1.4042       C21-C23=1.5384       C21-H45=1.0953       
O22-C21=1.4042       O22-H46=0.9695       C23-C3=1.5336        C23-C21=1.5384       C23-O24=1.4021       C23-H47=1.1023       
O24-C23=1.4021       O24-H48=0.9712       H25-C1=1.0907        H26-C1=1.0931        H27-C1=1.0859        H28-C3=1.1093        
H29-C5=1.1008        H30-C6=1.0984        H31-C6=1.0908        H32-O7=0.9677        H33-C8=1.0944        H34-C10=1.1013       
H35-C12=1.1009       H36-C13=1.0948       H37-C13=1.0904       H38-O14=0.9677       H39-C15=1.0955       H40-O16=0.9693       
H41-C17=1.1002       H42-O18=0.9698       H43-C19=1.1018       H44-O20=0.9704       H45-C21=1.0953       H46-O22=0.9695       
H47-C23=1.1023       H48-O24=0.9712       
 C  H  Rav=1.0968 sigma=0.0056  Rmin=1.0859  Rmax=1.1093    17
 C  C  Rav=1.5373 sigma=0.0069  Rmin=1.5284  Rmax=1.5546    10
 O  H  Rav=0.9694 sigma=0.0012  Rmin=0.9677  Rmax=0.9712     7
 O  C  Rav=1.4080 sigma=0.0122  Rmin=1.3807  Rmax=1.4296    15

 selected bond angles (degree)
 --------------------
H25-C1-O2=110.67               H26-C1-O2=110.35               H26-C1-H25=109.90              H27-C1-O2=105.28               
H27-C1-H25=110.29              H27-C1-H26=110.26              C3-O2-C1=115.02                O4-C3-O2=108.57                
C23-C3-O2=107.45               C23-C3-O4=111.48               H28-C3-O2=111.30               H28-C3-O4=109.26               
H28-C3-C23=108.79              C5-O4-C3=113.97                C6-C5-O4=106.71                C8-C5-O4=109.63                
C8-C5-C6=113.82                H29-C5-O4=109.76               H29-C5-C6=108.63               H29-C5-C8=108.23               
O7-C6-C5=112.20                H30-C6-C5=108.45               H30-C6-O7=110.21               H31-C6-C5=108.38               
H31-C6-O7=106.44               H31-C6-H30=111.16              H32-O7-C6=108.51               O9-C8-C5=112.06                
C21-C8-C5=108.80               C21-C8-O9=107.80               H33-C8-C5=108.70               H33-C8-O9=111.41               
H33-C8-C21=107.96              C10-O9-C8=123.02               O11-C10-O9=114.38              C19-C10-O9=114.69              
C19-C10-O11=114.23             H34-C10-O9=101.01              H34-C10-O11=104.48             H34-C10-C19=106.13             

 selected dihedral angles (degree)
 ---------------------------------
C3-O2-C1-H25= 65.00           C3-O2-C1-H26=303.13           C3-O2-C1-H27=184.16           O4-C3-O2-C1=287.15            
C23-C3-O2-C1=166.45           H28-C3-O2-C1= 47.44           C5-O4-C3-O2=182.59            C5-O4-C3-C23=300.76           
C5-O4-C3-H28= 61.04           C6-C5-O4-C3=187.89            C8-C5-O4-C3= 64.19            H29-C5-O4-C3=305.43           
O7-C6-C5-O4= 64.86            O7-C6-C5-C8=185.93            O7-C6-C5-H29=306.58           H30-C6-C5-O4=302.89           
H30-C6-C5-C8= 63.95           H30-C6-C5-H29=184.61          H31-C6-C5-O4=182.10           H31-C6-C5-C8=303.17           
H31-C6-C5-H29= 63.82          H32-O7-C6-C5=303.40           H32-O7-C6-H30= 64.36          H32-O7-C6-H31=185.00          
O9-C8-C5-O4=182.12            O9-C8-C5-C6= 62.70            O9-C8-C5-H29=301.82           C21-C8-C5-O4=301.22           
C21-C8-C5-C6=181.80           C21-C8-C5-H29= 60.92          H33-C8-C5-O4= 58.56           H33-C8-C5-C6=299.13           
H33-C8-C5-H29=178.26          C10-O9-C8-C5=238.77           C10-O9-C8-C21=119.08          C10-O9-C8-H33=  0.80          
O11-C10-O9-C8=329.92          C19-C10-O9-C8=104.69          H34-C10-O9-C8=218.33          
           -------------------------------------------------
          |                Final Singlepoint                |
           -------------------------------------------------

          ...................................................
          :                      SETUP                      :
          :.................................................:
          :  # basis functions                 120          :
          :  # atomic orbitals                 120          :
          :  # shells                           72          :
          :  # electrons                       142          :
          :  max. iterations                   250          :
          :  Hamiltonian                  GFN2-xTB          :
          :  restarted?                      false          :
          :  GBSA solvation                   true          :
          :  PC potential                    false          :
          :  electronic temp.          300.0000000     K    :
          :  accuracy                    1.0000000          :
          :  -> integral cutoff          0.2500000E+02      :
          :  -> integral neglect         0.1000000E-07      :
          :  -> SCF convergence          0.1000000E-05 Eh   :
          :  -> wf. convergence          0.1000000E-03 e    :
          :  Broyden damping             0.4000000          :
          :  net charge                          0          :
          :  unpaired electrons                  0          :
          ...................................................

 iter      E             dE          RMSdq      gap      omega  full diag
   1    -85.4529210 -0.854529E+02  0.459E-06    9.26       0.0  T
   2    -85.4529210  0.284217E-13  0.301E-06    9.26    4797.0  T
   3    -85.4529210  0.113687E-12  0.123E-06    9.26   11753.0  T

   *** convergence criteria satisfied after 3 iterations ***

         #    Occupation            Energy/Eh            Energy/eV
      -------------------------------------------------------------
         1        2.0000           -0.7402207             -20.1424
       ...           ...                  ...                  ...
        65        2.0000           -0.4293767             -11.6839
        66        2.0000           -0.4289924             -11.6735
        67        2.0000           -0.4267989             -11.6138
        68        2.0000           -0.4230200             -11.5110
        69        2.0000           -0.4193541             -11.4112
        70        2.0000           -0.4172214             -11.3532
        71        2.0000           -0.4040986             -10.9961 (HOMO)
        72                         -0.0636986              -1.7333 (LUMO)
        73                         -0.0458030              -1.2464
        74                         -0.0190141              -0.5174
        75                         -0.0082998              -0.2258
        76                         -0.0003963              -0.0108
       ...                                ...                  ...
       120                          0.3102183               8.4415
      -------------------------------------------------------------
                  HL-Gap            0.3404000 Eh            9.2628 eV
             Fermi-level           -0.2338986 Eh           -6.3647 eV

 SCC (total)                   0 d,  0 h,  0 min,  0.182 sec
 SCC setup                      ...        0 min,  0.004 sec (  2.024%)
 Dispersion                     ...        0 min,  0.001 sec (  0.591%)
 classical contributions        ...        0 min,  0.000 sec (  0.262%)
 integral evaluation            ...        0 min,  0.032 sec ( 17.741%)
 iterations                     ...        0 min,  0.035 sec ( 19.080%)
 molecular gradient             ...        0 min,  0.109 sec ( 59.737%)
 printout                       ...        0 min,  0.001 sec (  0.545%)

         :::::::::::::::::::::::::::::::::::::::::::::::::::::
         ::                     SUMMARY                     ::
         :::::::::::::::::::::::::::::::::::::::::::::::::::::
         :: total energy             -84.834697391839 Eh    ::
         :: total w/o Gsasa/hb       -84.813125658285 Eh    ::
         :: gradient norm              0.000504448609 Eh/a0 ::
         :: HOMO-LUMO gap              9.262755007747 eV    ::
         ::.................................................::
         :: SCC energy               -85.451742330971 Eh    ::
         :: -> isotropic ES            0.287492227001 Eh    ::
         :: -> anisotropic ES         -0.009689534865 Eh    ::
         :: -> anisotropic XC         -0.015719981866 Eh    ::
         :: -> dispersion             -0.047107713795 Eh    ::
         :: -> Gsolv                  -0.052346279381 Eh    ::
         ::    -> Gelec               -0.030774545826 Eh    ::
         ::    -> Gsasa                0.007759934995 Eh    ::
         ::    -> Ghb                 -0.030412428248 Eh    ::
         ::    -> Gshift               0.001080759698 Eh    ::
         :: repulsion energy           0.616928661696 Eh    ::
         :: add. restraining           0.000116277436 Eh    ::
         :: total charge               0.000000000000 e     ::
         :::::::::::::::::::::::::::::::::::::::::::::::::::::

========================================================================
 RELAXED SCAN
------------------------------------------------------------------------
 output written to xtbscan.log
 scaning constraint 2
... step 1 ...
      ----------------------------------------------------------- 
     |                   =====================                   |
     |                        A N C O P T                        |
     |                   =====================                   |
     |               Approximate Normal Coordinate               |
     |                Rational Function Optimizer                |
      ----------------------------------------------------------- 
 current energy:         -84.83469739
    bias energy:           0.00011628
unbiased energy:         -84.83481367
... step 2 ...
      ----------------------------------------------------------- 
     |                   =====================                   |
     |                        A N C O P T                        |
     |                   =====================                   |
     |               Approximate Normal Coordinate               |
     |                Rational Function Optimizer                |
      ----------------------------------------------------------- 
 current energy:         -84.83287933
    bias energy:           0.00009061
unbiased energy:         -84.83296994
... step 3 ...
      ----------------------------------------------------------- 
     |                   =====================                   |
     |                        A N C O P T                        |
     |                   =====================                   |
     |               Approximate Normal Coordinate               |
     |                Rational Function Optimizer                |
      ----------------------------------------------------------- 
 current energy:         -84.83101759
    bias energy:           0.00018333
unbiased energy:         -84.83120092
... step 4 ...
      ----------------------------------------------------------- 
     |                   =====================                   |
     |                        A N C O P T                        |
     |                   =====================                   |
     |               Approximate Normal Coordinate               |
     |                Rational Function Optimizer                |
      ----------------------------------------------------------- 
 current energy:         -84.82967223
    bias energy:           0.00006462
unbiased energy:         -84.82973685
... step 5 ...
      ----------------------------------------------------------- 
     |                   =====================                   |
     |                        A N C O P T                        |
     |                   =====================                   |
     |               Approximate Normal Coordinate               |
     |                Rational Function Optimizer                |
      ----------------------------------------------------------- 
 current energy:         -84.83479954
    bias energy:           0.00019745
unbiased energy:         -84.83499699
... step 6 ...
      ----------------------------------------------------------- 
     |                   =====================                   |
     |                        A N C O P T                        |
     |                   =====================                   |
     |               Approximate Normal Coordinate               |
     |                Rational Function Optimizer                |
      ----------------------------------------------------------- 
 current energy:         -84.83543213
    bias energy:           0.00003899
unbiased energy:         -84.83547112
... step 7 ...
      ----------------------------------------------------------- 
     |                   =====================                   |
     |                        A N C O P T                        |
     |                   =====================                   |
     |               Approximate Normal Coordinate               |
     |                Rational Function Optimizer                |
      ----------------------------------------------------------- 
 current energy:         -84.83497920
    bias energy:           0.00003399
unbiased energy:         -84.83501320
... step 8 ...
      ----------------------------------------------------------- 
     |                   =====================                   |
     |                        A N C O P T                        |
     |                   =====================                   |
     |               Approximate Normal Coordinate               |
     |                Rational Function Optimizer                |
      ----------------------------------------------------------- 
 current energy:         -84.83337992
    bias energy:           0.00018433
unbiased energy:         -84.83356424
... step 9 ...
      ----------------------------------------------------------- 
     |                   =====================                   |
     |                        A N C O P T                        |
     |                   =====================                   |
     |               Approximate Normal Coordinate               |
     |                Rational Function Optimizer                |
      ----------------------------------------------------------- 
 current energy:         -84.83093547
    bias energy:           0.00043115
unbiased energy:         -84.83136662
... step 10 ...
      ----------------------------------------------------------- 
     |                   =====================                   |
     |                        A N C O P T                        |
     |                   =====================                   |
     |               Approximate Normal Coordinate               |
     |                Rational Function Optimizer                |
      ----------------------------------------------------------- 
 current energy:         -84.82817745
    bias energy:           0.00058494
unbiased energy:         -84.82876239
... step 11 ...
      ----------------------------------------------------------- 
     |                   =====================                   |
     |                        A N C O P T                        |
     |                   =====================                   |
     |               Approximate Normal Coordinate               |
     |                Rational Function Optimizer                |
      ----------------------------------------------------------- 
 current energy:         -84.82914382
    bias energy:           0.00016939
unbiased energy:         -84.82931322
... step 12 ...
      ----------------------------------------------------------- 
     |                   =====================                   |
     |                        A N C O P T                        |
     |                   =====================                   |
     |               Approximate Normal Coordinate               |
     |                Rational Function Optimizer                |
      ----------------------------------------------------------- 
 current energy:         -84.82899111
    bias energy:           0.00023578
unbiased energy:         -84.82922689
... step 13 ...
      ----------------------------------------------------------- 
     |                   =====================                   |
     |                        A N C O P T                        |
     |                   =====================                   |
     |               Approximate Normal Coordinate               |
     |                Rational Function Optimizer                |
      ----------------------------------------------------------- 
 current energy:         -84.83483242
    bias energy:           0.00014899
unbiased energy:         -84.83498141
... step 14 ...
      ----------------------------------------------------------- 
     |                   =====================                   |
     |                        A N C O P T                        |
     |                   =====================                   |
     |               Approximate Normal Coordinate               |
     |                Rational Function Optimizer                |
      ----------------------------------------------------------- 
 current energy:         -84.83677388
    bias energy:           0.00017759
unbiased energy:         -84.83695146
... step 15 ...
      ----------------------------------------------------------- 
     |                   =====================                   |
     |                        A N C O P T                        |
     |                   =====================                   |
     |               Approximate Normal Coordinate               |
     |                Rational Function Optimizer                |
      ----------------------------------------------------------- 
 current energy:         -84.83869710
    bias energy:           0.00016463
unbiased energy:         -84.83886173
... step 16 ...
      ----------------------------------------------------------- 
     |                   =====================                   |
     |                        A N C O P T                        |
     |                   =====================                   |
     |               Approximate Normal Coordinate               |
     |                Rational Function Optimizer                |
      ----------------------------------------------------------- 
 current energy:         -84.84040532
    bias energy:           0.00012575
unbiased energy:         -84.84053107
... step 17 ...
      ----------------------------------------------------------- 
     |                   =====================                   |
     |                        A N C O P T                        |
     |                   =====================                   |
     |               Approximate Normal Coordinate               |
     |                Rational Function Optimizer                |
      ----------------------------------------------------------- 
 current energy:         -84.84162080
    bias energy:           0.00008924
unbiased energy:         -84.84171004
... step 18 ...
      ----------------------------------------------------------- 
     |                   =====================                   |
     |                        A N C O P T                        |
     |                   =====================                   |
     |               Approximate Normal Coordinate               |
     |                Rational Function Optimizer                |
      ----------------------------------------------------------- 
 current energy:         -84.84183689
    bias energy:           0.00010655
unbiased energy:         -84.84194344
... step 19 ...
      ----------------------------------------------------------- 
     |                   =====================                   |
     |                        A N C O P T                        |
     |                   =====================                   |
     |               Approximate Normal Coordinate               |
     |                Rational Function Optimizer                |
      ----------------------------------------------------------- 
 current energy:         -84.84366402
    bias energy:           0.00004737
unbiased energy:         -84.84371139
... step 20 ...
      ----------------------------------------------------------- 
     |                   =====================                   |
     |                        A N C O P T                        |
     |                   =====================                   |
     |               Approximate Normal Coordinate               |
     |                Rational Function Optimizer                |
      ----------------------------------------------------------- 
 current energy:         -84.84207341
    bias energy:           0.00020991
unbiased energy:         -84.84228331
... step 21 ...
      ----------------------------------------------------------- 
     |                   =====================                   |
     |                        A N C O P T                        |
     |                   =====================                   |
     |               Approximate Normal Coordinate               |
     |                Rational Function Optimizer                |
      ----------------------------------------------------------- 
 current energy:         -84.84248588
    bias energy:           0.00005870
unbiased energy:         -84.84254458
... step 22 ...
      ----------------------------------------------------------- 
     |                   =====================                   |
     |                        A N C O P T                        |
     |                   =====================                   |
     |               Approximate Normal Coordinate               |
     |                Rational Function Optimizer                |
      ----------------------------------------------------------- 
 current energy:         -84.84070914
    bias energy:           0.00019337
unbiased energy:         -84.84090252
... step 23 ...
      ----------------------------------------------------------- 
     |                   =====================                   |
     |                        A N C O P T                        |
     |                   =====================                   |
     |               Approximate Normal Coordinate               |
     |                Rational Function Optimizer                |
      ----------------------------------------------------------- 
 current energy:         -84.83792547
    bias energy:           0.00037371
unbiased energy:         -84.83829918
... step 24 ...
      ----------------------------------------------------------- 
     |                   =====================                   |
     |                        A N C O P T                        |
     |                   =====================                   |
     |               Approximate Normal Coordinate               |
     |                Rational Function Optimizer                |
      ----------------------------------------------------------- 
 current energy:         -84.83505725
    bias energy:           0.00034789
unbiased energy:         -84.83540514
... step 25 ...
      ----------------------------------------------------------- 
     |                   =====================                   |
     |                        A N C O P T                        |
     |                   =====================                   |
     |               Approximate Normal Coordinate               |
     |                Rational Function Optimizer                |
      ----------------------------------------------------------- 
 current energy:         -84.83268227
    bias energy:           0.00018027
unbiased energy:         -84.83286254
... step 26 ...
      ----------------------------------------------------------- 
     |                   =====================                   |
     |                        A N C O P T                        |
     |                   =====================                   |
     |               Approximate Normal Coordinate               |
     |                Rational Function Optimizer                |
      ----------------------------------------------------------- 
 current energy:         -84.83156848
    bias energy:           0.00003600
unbiased energy:         -84.83160448
... step 27 ...
      ----------------------------------------------------------- 
     |                   =====================                   |
     |                        A N C O P T                        |
     |                   =====================                   |
     |               Approximate Normal Coordinate               |
     |                Rational Function Optimizer                |
      ----------------------------------------------------------- 
 current energy:         -84.83141191
    bias energy:           0.00011635
unbiased energy:         -84.83152827
... step 28 ...
      ----------------------------------------------------------- 
     |                   =====================                   |
     |                        A N C O P T                        |
     |                   =====================                   |
     |               Approximate Normal Coordinate               |
     |                Rational Function Optimizer                |
      ----------------------------------------------------------- 
 current energy:         -84.83109019
    bias energy:           0.00027389
unbiased energy:         -84.83136408
... step 29 ...
      ----------------------------------------------------------- 
     |                   =====================                   |
     |                        A N C O P T                        |
     |                   =====================                   |
     |               Approximate Normal Coordinate               |
     |                Rational Function Optimizer                |
      ----------------------------------------------------------- 
 current energy:         -84.83045367
    bias energy:           0.00046757
unbiased energy:         -84.83092124
... step 30 ...
      ----------------------------------------------------------- 
     |                   =====================                   |
     |                        A N C O P T                        |
     |                   =====================                   |
     |               Approximate Normal Coordinate               |
     |                Rational Function Optimizer                |
      ----------------------------------------------------------- 
 current energy:         -84.82957947
    bias energy:           0.00052606
unbiased energy:         -84.83010553
... step 31 ...
      ----------------------------------------------------------- 
     |                   =====================                   |
     |                        A N C O P T                        |
     |                   =====================                   |
     |               Approximate Normal Coordinate               |
     |                Rational Function Optimizer                |
      ----------------------------------------------------------- 
 current energy:         -84.83132614
    bias energy:           0.00013461
unbiased energy:         -84.83146075
... step 32 ...
      ----------------------------------------------------------- 
     |                   =====================                   |
     |                        A N C O P T                        |
     |                   =====================                   |
     |               Approximate Normal Coordinate               |
     |                Rational Function Optimizer                |
      ----------------------------------------------------------- 
 current energy:         -84.83355612
    bias energy:           0.00020340
unbiased energy:         -84.83375952
... step 33 ...
      ----------------------------------------------------------- 
     |                   =====================                   |
     |                        A N C O P T                        |
     |                   =====================                   |
     |               Approximate Normal Coordinate               |
     |                Rational Function Optimizer                |
      ----------------------------------------------------------- 
 current energy:         -84.83686588
    bias energy:           0.00021717
unbiased energy:         -84.83708305
... step 34 ...
      ----------------------------------------------------------- 
     |                   =====================                   |
     |                        A N C O P T                        |
     |                   =====================                   |
     |               Approximate Normal Coordinate               |
     |                Rational Function Optimizer                |
      ----------------------------------------------------------- 
 current energy:         -84.83874502
    bias energy:           0.00003522
unbiased energy:         -84.83878024
... step 35 ...
      ----------------------------------------------------------- 
     |                   =====================                   |
     |                        A N C O P T                        |
     |                   =====================                   |
     |               Approximate Normal Coordinate               |
     |                Rational Function Optimizer                |
      ----------------------------------------------------------- 
 current energy:         -84.83885490
    bias energy:           0.00005822
unbiased energy:         -84.83891312
... step 36 ...
      ----------------------------------------------------------- 
     |                   =====================                   |
     |                        A N C O P T                        |
     |                   =====================                   |
     |               Approximate Normal Coordinate               |
     |                Rational Function Optimizer                |
      ----------------------------------------------------------- 
 current energy:         -84.83695979
    bias energy:           0.00040307
unbiased energy:         -84.83736287
           -------------------------------------------------
          |                Property Printout                |
           -------------------------------------------------

    * Orbital Energies and Occupations

         #    Occupation            Energy/Eh            Energy/eV
      -------------------------------------------------------------
         1        2.0000           -0.7418833             -20.1877
       ...           ...                  ...                  ...
        59        2.0000           -0.4642066             -12.6317
        60        2.0000           -0.4610574             -12.5460
        61        2.0000           -0.4588243             -12.4852
        62        2.0000           -0.4537727             -12.3478
        63        2.0000           -0.4452771             -12.1166
        64        2.0000           -0.4431896             -12.0598
        65        2.0000           -0.4293805             -11.6840
        66        2.0000           -0.4268999             -11.6165
        67        2.0000           -0.4238621             -11.5339
        68        2.0000           -0.4225960             -11.4994
        69        2.0000           -0.4215189             -11.4701
        70        2.0000           -0.4090892             -11.1319
        71        2.0000           -0.3976497             -10.8206 (HOMO)
        72                         -0.0588715              -1.6020 (LUMO)
        73                         -0.0429845              -1.1697
        74                         -0.0187182              -0.5093
        75                         -0.0076195              -0.2073
        76                         -0.0034015              -0.0926
        77                          0.0033591               0.0914
        78                          0.0204590               0.5567
        79                          0.0253152               0.6889
        80                          0.0323989               0.8816
        81                          0.0408026               1.1103
        82                          0.0500610               1.3622
       ...                                ...                  ...
       120                          0.2995500               8.1512
      -------------------------------------------------------------
                  HL-Gap            0.3387782 Eh            9.2186 eV
             Fermi-level           -0.2282606 Eh           -6.2113 eV

     #   Z          covCN         q      C6AA      α(0)
     1   6 C        3.648     0.015    20.642     6.527
     2   8 O        1.702    -0.329    19.507     5.963
     3   6 C        3.653     0.249    17.022     5.924
     4   8 O        1.701    -0.358    20.034     6.043
     5   6 C        3.749     0.093    19.101     6.233
     6   6 C        3.676     0.072    19.601     6.343
     7   8 O        1.655    -0.488    22.636     6.423
     8   6 C        3.734     0.091    19.151     6.246
     9   8 O        1.701    -0.339    19.690     5.991
    10   6 C        3.641     0.235    17.260     5.974
    11   8 O        1.700    -0.352    19.927     6.027
    12   6 C        3.749     0.077    19.355     6.274
    13   6 C        3.675     0.065    19.709     6.361
    14   8 O        1.655    -0.482    22.518     6.406
    15   6 C        3.724     0.081    19.330     6.278
    16   8 O        1.655    -0.491    22.708     6.433
    17   6 C        3.723     0.090    19.199     6.257
    18   8 O        1.656    -0.507    23.034     6.479
    19   6 C        3.724     0.082    19.313     6.276
    20   8 O        1.655    -0.480    22.473     6.399
    21   6 C        3.726     0.089    19.199     6.256
    22   8 O        1.655    -0.478    22.415     6.391
    23   6 C        3.726     0.091    19.175     6.252
    24   8 O        1.656    -0.500    22.899     6.460
    25   1 H        0.924     0.061     2.183     2.310
    26   1 H        0.924     0.055     2.259     2.351
    27   1 H        0.925     0.096     1.819     2.109
    28   1 H        0.922     0.008     2.917     2.671
    29   1 H        0.923     0.042     2.419     2.432
    30   1 H        0.924     0.056     2.241     2.341
    31   1 H        0.925     0.070     2.081     2.256
    32   1 H        0.805     0.355     0.577     1.193
    33   1 H        0.924     0.058     2.217     2.328
    34   1 H        0.923     0.045     2.388     2.417
    35   1 H        0.924     0.080     1.979     2.200
    36   1 H        0.924     0.030     2.585     2.514
    37   1 H        0.924     0.073     2.054     2.241
    38   1 H        0.804     0.343     0.604     1.221
    39   1 H        0.924     0.057     2.240     2.341
    40   1 H        0.804     0.363     0.558     1.174
    41   1 H        0.923     0.049     2.336     2.390
    42   1 H        0.804     0.373     0.537     1.151
    43   1 H        0.924     0.069     2.091     2.262
    44   1 H        0.804     0.347     0.596     1.213
    45   1 H        0.924     0.068     2.106     2.270
    46   1 H        0.804     0.349     0.592     1.208
    47   1 H        0.923     0.044     2.403     2.424
    48   1 H        0.804     0.381     0.521     1.134

 Mol. C6AA /au·bohr⁶  :      19128.474610
 Mol. C8AA /au·bohr⁸  :     410313.213159
 Mol. α(0) /au        :        198.367829


Wiberg/Mayer (AO) data.
largest (>0.10) Wiberg bond orders for each atom

 ---------------------------------------------------------------------------
     #   Z sym  total        # sym  WBO       # sym  WBO       # sym  WBO
 ---------------------------------------------------------------------------
     1   6 C    3.918 --    25 H    0.980    26 H    0.978    27 H    0.976
                             2 O    0.958
     2   8 O    2.084 --     3 C    1.014     1 C    0.958
     3   6 C    3.932 --     2 O    1.014    23 C    0.958     4 O    0.950
                            28 H    0.942
     4   8 O    2.062 --     5 C    0.963     3 C    0.950
     5   6 C    3.940 --     6 C    0.977     8 C    0.963     4 O    0.963
                            29 H    0.955
     6   6 C    3.955 --     7 O    1.010     5 C    0.977    31 H    0.966
                            30 H    0.965
     7   8 O    1.930 --     6 C    1.010    32 H    0.860
     8   6 C    3.940 --    21 C    0.965     5 C    0.963    33 H    0.955
                             9 O    0.955
     9   8 O    2.086 --    10 C    0.986     8 C    0.955
    10   6 C    3.924 --     9 O    0.986    11 O    0.965    19 C    0.948
                            34 H    0.947
    11   8 O    2.068 --    10 C    0.965    12 C    0.949
    12   6 C    3.931 --    13 C    0.972    15 C    0.964    35 H    0.956
                            11 O    0.949
    13   6 C    3.959 --    14 O    1.013    12 C    0.972    37 H    0.967
                            36 H    0.967
    14   8 O    1.937 --    13 C    1.013    38 H    0.855
    15   6 C    3.958 --    16 O    1.006    12 C    0.964    17 C    0.959
                            39 H    0.956
    16   8 O    1.937 --    15 C    1.006    40 H    0.849
    17   6 C    3.957 --    18 O    1.002    19 C    0.960    15 C    0.959
                            41 H    0.955
    18   8 O    1.917 --    17 C    1.002    42 H    0.843
    19   6 C    3.958 --    20 O    1.007    17 C    0.960    43 H    0.958
                            10 C    0.948
    20   8 O    1.946 --    19 C    1.007    44 H    0.857
    21   6 C    3.958 --    22 O    0.997     8 C    0.965    23 C    0.961
                            45 H    0.957
    22   8 O    1.953 --    21 C    0.997    46 H    0.858
    23   6 C    3.962 --    24 O    1.006    21 C    0.961     3 C    0.958
                            47 H    0.954
    24   8 O    1.916 --    23 C    1.006    48 H    0.838
    25   1 H    0.996 --     1 C    0.980
    26   1 H    0.997 --     1 C    0.978
    27   1 H    0.990 --     1 C    0.976
    28   1 H    1.000 --     3 C    0.942
    29   1 H    0.998 --     5 C    0.955
    30   1 H    0.997 --     6 C    0.965
    31   1 H    0.994 --     6 C    0.966
    32   1 H    0.874 --     7 O    0.860
    33   1 H    0.997 --     8 C    0.955
    34   1 H    0.997 --    10 C    0.947
    35   1 H    0.994 --    12 C    0.956
    36   1 H    0.999 --    13 C    0.967
    37   1 H    0.994 --    13 C    0.967
    38   1 H    0.882 --    14 O    0.855
    39   1 H    0.997 --    15 C    0.956
    40   1 H    0.868 --    16 O    0.849
    41   1 H    0.998 --    17 C    0.955
    42   1 H    0.860 --    18 O    0.843
    43   1 H    0.995 --    19 C    0.958
    44   1 H    0.880 --    20 O    0.857
    45   1 H    0.995 --    21 C    0.957
    46   1 H    0.879 --    22 O    0.858
    47   1 H    0.998 --    23 C    0.954
    48   1 H    0.855 --    24 O    0.838
 ---------------------------------------------------------------------------

Topologies differ in total number of bonds
Writing topology from bond orders to xtbtopo.mol

molecular dipole:
                 x           y           z       tot (Debye)
 q only:       -0.358      -0.234       1.531
   full:       -0.468      -0.322       1.736       4.643
molecular quadrupole (traceless):
                xx          xy          yy          xz          yz          zz
 q only:       10.632       8.675     -16.385     -12.438       3.918       5.753
  q+dip:        5.230       8.333     -21.987     -13.196       9.983      16.757
   full:        7.467       9.052     -21.965     -13.628       8.311      14.498

           -------------------------------------------------
          |                Geometry Summary                 |
           -------------------------------------------------

      molecular mass/u    :      356.3235988
   center of mass at/Å    :       -0.0451098      -0.0300842       0.1128087
  moments of inertia/u·Å² :        0.1262865E+04   0.3583795E+04   0.4598635E+04
rotational constants/cm⁻¹ :        0.1334872E-01   0.4703849E-02   0.3665790E-02

 * 44 selected distances

     #   Z          #   Z                                           value/Å
     1   6 C        2   8 O                                       1.4239714
     2   8 O        3   6 C                                       1.3809773
     3   6 C        4   8 O                                       1.4128878
     4   8 O        5   6 C                                       1.4161764
     5   6 C        6   6 C                                       1.5316083
     6   6 C        7   8 O                                       1.4026257
     5   6 C        8   6 C                                       1.5386083
     8   6 C        9   8 O                                       1.4238870
     9   8 O       10   6 C                                       1.3964137
    10   6 C       11   8 O                                       1.4099296
    11   8 O       12   6 C                                       1.4262343
    13   6 C       14   8 O                                       1.4027132
    15   6 C       16   8 O                                       1.4036261
    17   6 C       18   8 O                                       1.4057144
    19   6 C       20   8 O                                       1.4032303
     8   6 C       21   6 C                                       1.5364946
    21   6 C       22   8 O                                       1.4083693
     3   6 C       23   6 C                                       1.5339634
    21   6 C       23   6 C                                       1.5395627 (max)
    23   6 C       24   8 O                                       1.4022256
     1   6 C       25   1 H                                       1.0908513
     1   6 C       26   1 H                                       1.0933837
     1   6 C       27   1 H                                       1.0859848
     3   6 C       28   1 H                                       1.1097668
     5   6 C       29   1 H                                       1.1024849
     6   6 C       30   1 H                                       1.0950073
     6   6 C       31   1 H                                       1.0892762
     7   8 O       32   1 H                                       0.9675492 (min)
     8   6 C       33   1 H                                       1.0950122
    10   6 C       34   1 H                                       1.0980728
    12   6 C       35   1 H                                       1.0955214
    13   6 C       36   1 H                                       1.0976435
    13   6 C       37   1 H                                       1.0917023
    14   8 O       38   1 H                                       0.9722868
    15   6 C       39   1 H                                       1.0966102
    16   8 O       40   1 H                                       0.9694221
    17   6 C       41   1 H                                       1.1026747
    18   8 O       42   1 H                                       0.9699266
    19   6 C       43   1 H                                       1.0914831
    20   8 O       44   1 H                                       0.9707368
    21   6 C       45   1 H                                       1.0954136
    22   8 O       46   1 H                                       0.9704928
    23   6 C       47   1 H                                       1.1016278
Note: The following floating-point exceptions are signalling: IEEE_UNDERFLOW_FLAG IEEE_DENORMAL
normal termination of xtb
    24   8 O       48   1 H                                       0.9709379

 * 4 distinct bonds (by element types)

   Z      Z             #   av. dist./Å        max./Å        min./Å
   1 H    6 C          17     1.0960304     1.1097668     1.0859848
   6 C    6 C           5     1.5360475     1.5395627     1.5316083
   1 H    8 O           7     0.9701932     0.9722868     0.9675492
   6 C    8 O          15     1.4079321     1.4262343     1.3809773


optimized geometry written to: xtbopt.xyz


           -------------------------------------------------
          | TOTAL ENERGY              -84.834697391839 Eh   |
          | GRADIENT NORM               0.000504448609 Eh/α |
          | HOMO-LUMO GAP               9.218624812919 eV   |
           -------------------------------------------------

------------------------------------------------------------------------
 * finished run on 2026/09/21 at 15:47:34.783     
------------------------------------------------------------------------
 total:
 * wall-time:     0 d,  0 h,  3 min,  3.951 sec
 *  cpu-time:     0 d,  0 h,  2 min, 50.492 sec
 * ratio c/w:     0.927 speedup
 SCF:
 * wall-time:     0 d,  0 h,  0 min,  0.497 sec
 *  cpu-time:     0 d,  0 h,  0 min,  0.251 sec
 * ratio c/w:     0.506 speedup
 ANC optimizer:
 * wall-time:     0 d,  0 h,  3 min,  3.406 sec
 *  cpu-time:     0 d,  0 h,  2 min, 50.208 sec
 * ratio c/w:     0.928 speedup

