48
 energy: -84.803368021812 gnorm: 0.000255492571 xtb: 6.7.1 (edcfbbe)
C            5.60739085169642       -0.28433472587232        0.19158779236168
O            4.70640258391293        0.74319205434074        0.55484219706709
C            3.50703022445255        0.30128960015753        1.06897249650933
O            2.73329744369698       -0.22651463042896        0.00778868982701
C            1.45400129831761       -0.69540065272093        0.38892341431111
C            0.90907164877143       -1.41348288025163       -0.84556083695680
O            1.76092227945916       -2.45033013633291       -1.23948589393912
C            0.60180883908405        0.47580996179867        0.91144916779111
O           -0.67004217797352        0.03307380133274        1.34873041569571
C           -1.80015743434880        0.74897736031570        0.91180867457388
O           -1.78980691717063        1.16089082329528       -0.42462804472803
C           -2.14496597581674        0.21997745838609       -1.43151587818505
C           -2.35815789773920        1.03191385951049       -2.72046229404246
O           -2.56984393836202        0.20179933047192       -3.83699904194147
C           -3.39548597323593       -0.60450711648242       -1.08935327497874
O           -3.57750393998370       -1.65784932272379       -2.00256360724155
C           -3.23307180067307       -1.20932088936720        0.30711299528580
O           -4.36862700300231       -1.94455674530030        0.68877964287828
C           -3.05268443910869       -0.05596055055718        1.29338456248272
O           -2.94831524206418       -0.49122946053701        2.61262494761981
C            1.33893434189338        1.15433806073241        2.07690551799743
O            0.68743351053514        2.31794891922811        2.52643117240563
C            2.79560956214885        1.49464337398348        1.71537433057417
O            3.49956733550814        1.86159470774683        2.86883510429128
H            5.21172763169185       -0.88713152652361       -0.63064695773382
H            5.82197208039546       -0.93378854277176        1.04712904928809
H            6.51788886394448        0.21792741570942       -0.12631813650751
H            3.65886891425132       -0.48552893342807        1.83677801741673
H            1.55818741530553       -1.42971847367331        1.20521072721874
H            0.80667228495022       -0.67696048636450       -1.65700605272218
H           -0.05272907543307       -1.87161323127373       -0.61241264742701
H            2.65580871885074       -2.08757703225680       -1.26015015818450
H            0.47637129299655        1.20305196626350        0.09355316574614
H           -1.82946123908617        1.70643183105766        1.46414237711463
H           -1.32634457655766       -0.49364108914180       -1.59315858737504
H           -1.49889580976768        1.69566878703236       -2.86704298668098
H           -3.25489845973824        1.64705515555005       -2.62137817432096
H           -1.74910266327569       -0.25668826243516       -4.05378852681335
H           -4.28100084567909        0.05299809676038       -1.08302468497555
H           -3.58712937828810       -1.27807373398792       -2.89510885790026
H           -2.34014844614136       -1.85305266278004        0.32847900096223
H           -4.59510650710829       -2.51990249742029       -0.05259222261678
H           -3.92210267149807        0.61747502916467        1.18386215338752
H           -3.57005827155047       -1.22497449669599        2.71372990668448
H            1.32683688496306        0.47492922034124        2.93629770131025
H            0.54937857652621        2.91377247096169        1.77938396747222
H            2.80715616778711        2.31600560665295        0.97784410362915
H            2.92329884939409        2.44136871937613        3.38671686205968
