48
-84.826498731967
C 5.142335 1.240525 1.237133
O 4.426392 0.011118 1.201437
C 3.518666 -0.089175 0.169463
O 2.434086 0.777540 0.442554
C 1.388698 0.740914 -0.510003
C 0.527745 1.976125 -0.208646
O -0.325821 2.350716 -1.248429
C 0.746664 -0.664201 -0.458187
O -0.341953 -0.862134 -1.341253
C -1.629724 -1.241172 -0.860088
O -1.750814 -1.391510 0.513764
C -2.117756 -0.269790 1.313114
C -2.422149 -0.842967 2.710285
O -2.682762 0.165186 3.653449
C -3.327797 0.487954 0.750150
O -3.576541 1.667683 1.470909
C -3.053456 0.873886 -0.706557
O -4.185694 1.470747 -1.301026
C -2.751421 -0.395842 -1.501121
O -2.415103 -0.129519 -2.831430
C 1.845277 -1.673196 -0.850388
O 1.399009 -3.002480 -0.756943
C 3.065674 -1.550460 0.069434
O 4.142252 -2.294586 -0.429918
H 4.460722 2.080351 1.386754
H 5.704638 1.381122 0.308735
H 5.825406 1.155542 2.077823
H 3.979637 0.199631 -0.800470
H 1.810654 0.864646 -1.524588
H 1.231412 2.783464 0.037112
H -0.099601 1.806760 0.667414
H 0.186442 2.540544 -2.044816
H 0.444100 -0.881079 0.573705
H -1.771011 -2.270693 -1.241072
H -1.283521 0.443654 1.386522
H -1.589320 -1.484764 3.014002
H -3.323659 -1.457270 2.651282
H -1.854593 0.575870 3.934871
H -4.211134 -0.173219 0.774130
H -3.637972 1.440354 2.414653
H -2.200130 1.559720 -0.756835
H -4.456097 2.208408 -0.738094
H -3.665547 -1.017700 -1.463813
H -3.026363 0.551739 -3.148686
H 2.158307 -1.454418 -1.884558
H 0.623887 -3.105072 -1.323870
H 2.788046 -1.889835 1.078216
H 3.849886 -3.213124 -0.522637
