48
Coordinates from ORCA-job 3_opt_3c E -1337.096823542670
  C           5.58403213295591      1.13659879107366      0.63946808123699
  O           4.97098653918928      0.06371298656331     -0.09497551620388
  C           3.61208013222908      0.24550700255165     -0.30467720110809
  O           2.93534521603427      0.03158459942657      0.94018879550985
  C           1.52230521556489      0.27834040575007      0.87058096764657
  C           1.00301854293623      0.16299002403370      2.28979473882678
  O           1.58254565292272      1.14657932451263      3.14726574058531
  C           0.92051880638299     -0.74894423187093     -0.08855140222293
  O          -0.46762053657177     -0.50674684038285     -0.34906736636351
  C          -1.41623900945574     -1.40701325269606      0.17609812289213
  O          -2.02883385857705     -0.92758255051925      1.35749355300970
  C          -2.74806655964063      0.30853440351118      1.18950489268853
  C          -3.29279593697444      0.62110949458927      2.57593217759153
  O          -3.95248402131342      1.89429821805753      2.51052867037250
  C          -3.85141245634000      0.14421241238822      0.13584373149630
  O          -4.48696801032012      1.38619480935770     -0.16593223819132
  C          -3.25798389788766     -0.37617269515718     -1.16658725422749
  O          -4.27099341507037     -0.71019205251771     -2.11981822353522
  C          -2.47242083227200     -1.64854595586498     -0.90182863665679
  O          -1.80344995493694     -2.12230814764727     -2.07057594220675
  C           1.61066796474955     -0.66514842771159     -1.44548174678157
  O           1.16613745517805     -1.70194522073727     -2.31499109803351
  C           3.12251564074753     -0.78690110592352     -1.31359728649308
  O           3.76721062856113     -0.54074156544375     -2.55994471330966
  H           5.21122304024297      1.17462119357913      1.66926699660036
  H           5.39386445340544      2.09826413179234      0.14471196899360
  H           6.65650292190536      0.93406023344391      0.64655376727593
  H           3.39648551784013      1.27268267910926     -0.66151276780097
  H           1.33693565651845      1.29722999813980      0.48737718308495
  H           1.19921444651831     -0.85500070666349      2.66334278900290
  H          -0.07690069920574      0.32937375205921      2.29532304957430
  H           2.53977967647968      1.01453837330565      3.12433286188318
  H           1.05621891879649     -1.75838513554913      0.33074043715127
  H          -0.93626593745738     -2.35237300632246      0.46141363024758
  H          -2.06094891324400      1.10948833301972      0.87113849707657
  H          -3.99428789195943     -0.17053807277475      2.87579357846533
  H          -2.46014413377363      0.64708090450246      3.29347430466977
  H          -4.46719521844417      2.00781105027641      3.31888515438385
  H          -4.58744045597149     -0.59091469757935      0.50870416695161
  H          -4.70408995445038      1.80157689860525      0.68532448233310
  H          -2.58541136385177      0.39094176710851     -1.58257466839775
  H          -4.67687659115377      0.11319836043775     -2.41963633783263
  H          -3.16282219049268     -2.41941303785106     -0.52323690811299
  H          -2.46236727349603     -2.18435595332005     -2.77602230455939
  H           1.37958706574676      0.32440279892882     -1.88067743079665
  H           0.19284056736317     -1.66798965003001     -2.33925584961494
  H           3.37743272011918     -1.78915963759308     -0.92867296069453
  H           3.35309820047299     -1.12070900196800     -3.21323048640686
