48
cell (100, -160) s_253 rnd245 xtb E -84.861198875
C 5.579937 -1.047658 0.485394
O 4.865217 0.138598 0.824982
C 3.491956 -0.014544 0.886847
O 2.990064 -0.261320 -0.408143
C 1.597074 -0.489839 -0.425212
C 1.217460 -0.762502 -1.888045
O 1.468360 0.336626 -2.719477
C 0.796245 0.696632 0.138379
O -0.523307 0.201036 0.315123
C -1.542616 1.163065 0.403739
O -2.214865 1.303400 -0.820705
C -2.827365 0.107169 -1.285347
C -3.450128 0.455133 -2.639693
O -3.988769 -0.714048 -3.213056
C -3.863015 -0.413023 -0.277655
O -4.383188 -1.668773 -0.638603
C -3.199088 -0.574193 1.096485
O -4.137869 -0.910825 2.089744
C -2.531265 0.740744 1.504872
O -1.840532 0.628125 2.716829
C 1.369099 1.216446 1.466293
O 0.836642 2.497284 1.702968
C 2.902455 1.289676 1.436610
O 3.337051 1.542830 2.746485
H 5.289176 -1.399425 -0.504960
H 5.388495 -1.828676 1.226348
H 6.628292 -0.765079 0.494835
H 3.213354 -0.860314 1.550545
H 1.353297 -1.371477 0.186993
H 1.770417 -1.644741 -2.231761
H 0.146620 -0.960147 -1.942640
H 2.413819 0.542863 -2.672763
H 0.795621 1.519534 -0.589472
H -1.131652 2.149739 0.635026
H -2.066592 -0.674760 -1.422283
H -2.660841 0.885648 -3.264882
H -4.227643 1.212042 -2.480042
H -4.302333 -0.520554 -4.107761
H -4.677052 0.326322 -0.186097
H -4.539198 -1.676269 -1.599373
H -2.424340 -1.352662 1.023319
H -4.650549 -1.669564 1.772739
H -3.307413 1.519735 1.575025
H -2.439965 0.213552 3.358152
H 1.061715 0.526162 2.266141
H 1.190122 2.822559 2.545237
H 3.204694 2.101437 0.758121
H 4.305189 1.582868 2.758222
