48
 energy: -84.850452800860 gnorm: 0.000200873862 xtb: 6.7.1 (edcfbbe)
C            5.68493909892032       -0.56759534804459        0.05487134730607
O            4.82851340089017        0.51139647502782        0.41735698307750
C            3.60288137490353        0.13717876444642        0.92963376872974
O            2.79578695575725       -0.33634282784951       -0.13049462353322
C            1.49615497948723       -0.72778824083846        0.27636133018563
C            0.84701560094879       -1.40556568707349       -0.93012180673015
O            1.56868240521845       -2.52705957729183       -1.35716925758588
C            0.72500675701869        0.49643445593845        0.80029997883844
O           -0.57018765210427        0.12264486073106        1.25521858952081
C           -1.65018765206187        0.91175458923020        0.80964882389104
O           -1.71337581990540        1.12758139300405       -0.56721900907078
C           -2.28668861997658        0.12527180952175       -1.41076284341637
C           -2.60512143207804        0.83684669953128       -2.74004855057431
O           -3.08228031851500       -0.05493200266375       -3.71592493099854
C           -3.55101181256030       -0.53248628226189       -0.83571690186742
O           -3.89180805118164       -1.68488199797776       -1.56375891578234
C           -3.30904028781794       -0.94723756365921        0.61851823634341
O           -4.46375974160512       -1.49405611856482        1.20298261681518
C           -2.93486906873911        0.31170706564742        1.40030080244881
O           -2.73967821795591        0.07146580334569        2.76221331178332
C            1.50450074188731        1.15137182269490        1.95287803133953
O            0.92560728157361        2.36355785510877        2.36899607807161
C            2.98411072543480        1.37335892968655        1.59336510548598
O            3.73882123722407        1.65215868656886        2.74163610946476
H            5.25926140037503       -1.13645939161316       -0.77282390953332
H            5.85112609431963       -1.22560124894505        0.91201093610586
H            6.61836317501340       -0.10272918860478       -0.24865424997378
H            3.71150034355516       -0.66126060251838        1.69186632164839
H            1.57618450982955       -1.46121459960283        1.09517945623676
H            0.75920154980887       -0.66895225523628       -1.73863380112216
H           -0.13536658298922       -1.77399050469361       -0.63313217965948
H            2.47653466230151       -2.25141742071620       -1.54900541813006
H            0.62068543601026        1.21467502650325       -0.02582723772341
H           -1.52313339645863        1.92680832443428        1.22453872497558
H           -1.56132851587789       -0.67776539362436       -1.59001678445545
H           -1.71245927045810        1.37272238799067       -3.07339710625479
H           -3.39884337979672        1.56742118385728       -2.56617215798464
H           -2.34241392174090       -0.52093566724107       -4.13065913211056
H           -4.38417993258372        0.18861908419621       -0.84870796784104
H           -4.01631597135322       -1.43155555988522       -2.49594273584556
H           -2.47724570362826       -1.66605765414775        0.66760652498478
H           -4.78950226723591       -2.20301300248976        0.62792166665333
H           -3.74223269937539        1.05060008097109        1.26001654567192
H           -3.45772301971680       -0.50950766368875        3.06343831737057
H            1.43851226389154        0.49119483220947        2.82466099479933
H            0.96187380660106        3.00984669900159        1.64678039861304
H            3.06856020213762        2.19790247717090        0.86691070320561
H            3.29492513314243        2.35588208826296        3.24245705383175
