48
Coordinates from ORCA-job 3_opt_3c E -1337.079982920975
  C           5.33894132240529      1.15068268120291      1.07153683627109
  O           4.76344299678545      0.65559995466194     -0.14898174993941
  C           3.37896241852070      0.57474945874448     -0.11451029439845
  O           3.02072883443128     -0.54344166789573      0.70236715059587
  C           1.61195170810450     -0.69361658001876      0.93792262883951
  C           1.49866183301794     -1.88300217843762      1.91559831649523
  O           0.90463596857237     -1.53941998668245      3.16836716680575
  C           0.91959179203019     -0.92263526559376     -0.41813518806786
  O          -0.51882599081513     -0.81544658552190     -0.43071709735337
  C          -1.31045539437286     -0.91965459221378      0.72655312134279
  O          -1.69400623293150      0.36586679027506      1.20143659915229
  C          -2.41479228202375      1.16012853102501      0.23769638187109
  C          -2.63620248699039      2.50689494385331      0.89763304680377
  O          -1.40112395451648      3.17294364334250      1.16872143259047
  C          -3.71938864724809      0.45264839446032     -0.13294408268308
  O          -4.47024580469560      1.18849666690030     -1.10195131480323
  C          -3.41742623210041     -0.96006722963055     -0.63326472340801
  O          -4.61285103784343     -1.72085513062722     -0.81925694411203
  C          -2.57163599365969     -1.71304356265947      0.38424288899644
  O          -2.17482179311340     -2.99764998472106     -0.08347609359975
  C           1.34795736082070      0.15322010769295     -1.42052557022950
  O           0.87694903511830     -0.13932071597768     -2.73668883895538
  C           2.85502379270856      0.32035467034013     -1.51661363674027
  O           3.18761706428302      1.43126316539266     -2.34319069641603
  H           5.18570083428128      0.44576898538553      1.89646597649713
  H           4.90294993910280      2.12375019026184      1.33396856282389
  H           6.40800912519306      1.26717313773633      0.88500468633241
  H           2.93504834494686      1.49762229982519      0.31062112712927
  H           1.20608670002621      0.21775114079018      1.41124604087779
  H           2.50735718827970     -2.29284665062430      2.05815447897488
  H           0.87815340107041     -2.67967055979616      1.49257883411466
  H           1.49971991253270     -0.92940762181408      3.62311418267503
  H           1.19844944251678     -1.91843664390877     -0.79684664702733
  H          -0.79043484257951     -1.38368870935665      1.56559908644353
  H          -1.79652061992314      1.29320531023658     -0.66577135858266
  H          -3.22050211945888      2.36603274484510      1.82089691479207
  H          -3.20408819322121      3.15186286164969      0.22132017213125
  H          -0.88594134273934      2.58894875695730      1.74135345503146
  H          -4.36292584288073      0.38562859947574      0.75545331296059
  H          -3.92417547500117      1.28473445846482     -1.89600502362297
  H          -2.86030122767180     -0.88935338466496     -1.58374682917962
  H          -5.13207196298777     -1.28465574275707     -1.50764317245734
  H          -3.15385444892608     -1.80587298099429      1.31620341088827
  H          -2.98191208530149     -3.49985699689396     -0.25739238136961
  H           0.92135501025659      1.11083493767162     -1.07248758792260
  H          -0.08642528185586     -0.06338838573167     -2.72570482165928
  H           3.31685292104994     -0.60723047824526     -1.89561267023046
  H           2.67677534680309      1.33639620357565     -3.15909808867830
