48
cell 100,-20 xtb/ALPB scan2 frame
C 5.389756 1.055009 1.065823
O 4.768610 0.629359 -0.144228
C 3.390052 0.595047 -0.100244
O 3.001292 -0.470432 0.741758
C 1.609463 -0.660114 0.920284
C 1.514507 -1.877869 1.877148
O 0.783203 -1.622285 3.046586
C 0.908817 -0.890926 -0.429238
O -0.517460 -0.772381 -0.436714
C -1.293578 -0.864480 0.730711
O -1.653596 0.412026 1.192878
C -2.427959 1.173311 0.266009
C -2.758473 2.510382 0.941220
O -1.625493 3.318360 1.123293
C -3.715799 0.434907 -0.131613
O -4.466941 1.146014 -1.081171
C -3.386357 -0.977562 -0.637379
O -4.554300 -1.731183 -0.860623
C -2.542845 -1.703370 0.413113
O -2.117541 -2.967146 -0.014041
C 1.352800 0.150762 -1.476161
O 0.958182 -0.235088 -2.768392
C 2.868351 0.369906 -1.520229
O 3.183355 1.501325 -2.282944
H 5.171632 0.355651 1.874570
H 5.046159 2.057480 1.336111
H 6.454395 1.066760 0.852435
H 2.979270 1.549487 0.291240
H 1.168892 0.232046 1.394377
H 2.542587 -2.178198 2.104820
H 1.013300 -2.711756 1.379196
H 1.297456 -1.059729 3.643459
H 1.169864 -1.893152 -0.797340
H -0.767002 -1.326375 1.563994
H -1.821053 1.358537 -0.632922
H -3.250403 2.302507 1.897982
H -3.440288 3.071813 0.300370
H -1.044424 2.888138 1.764782
H -4.363776 0.345863 0.748023
H -3.925523 1.323449 -1.865384
H -2.799333 -0.909797 -1.566756
H -5.213780 -1.163730 -1.288991
H -3.135006 -1.786014 1.337799
H -2.893948 -3.454308 -0.332862
H 0.882591 1.113572 -1.211258
H 0.039568 -0.536389 -2.737664
H 3.357541 -0.528378 -1.920673
H 2.863228 1.358948 -3.187663
