48
-84.817890819173
C 5.806869 0.878962 -0.928477
O 4.740111 1.532036 -0.268244
C 3.671125 0.715407 0.029644
O 3.004220 0.409294 -1.183409
C 1.804568 -0.317872 -1.047655
C 1.281516 -0.539005 -2.474780
O 1.054267 0.680307 -3.124883
C 0.781179 0.472522 -0.207510
O -0.404264 -0.292386 -0.072617
C -1.587651 0.256307 -0.598975
O -2.413451 -0.799287 -0.991782
C -2.785403 -1.646608 0.086811
C -3.644246 -2.773659 -0.503507
O -3.956062 -3.758069 0.454870
C -3.554986 -0.870837 1.171911
O -3.814740 -1.661628 2.304555
C -2.724840 0.336690 1.622421
O -3.446850 1.172829 2.496119
C -2.358318 1.155783 0.386270
O -1.612722 2.301898 0.720309
C 1.415210 0.703799 1.168487
O 0.604227 1.395200 2.080532
C 2.749241 1.457303 1.003432
O 3.391569 1.550536 2.243937
H 5.485722 0.476124 -1.892665
H 6.205758 0.066838 -0.310517
H 6.572097 1.636422 -1.079314
H 4.005302 -0.229454 0.507538
H 1.987529 -1.287466 -0.560393
H 0.326932 -1.066798 -2.438805
H 2.013132 -1.144615 -3.027165
H 1.866820 1.197533 -3.045854
H 0.571473 1.431683 -0.693279
H -1.370963 0.821268 -1.517054
H -1.880213 -2.072296 0.546237
H -3.121592 -3.199750 -1.366397
H -4.598376 -2.366783 -0.844839
H -3.151155 -4.234942 0.689860
H -4.499907 -0.499088 0.738947
H -4.203547 -2.496671 1.999407
H -1.806376 -0.021304 2.111673
H -3.816034 0.609206 3.186303
H -3.286989 1.458892 -0.121703
H -2.094027 2.730540 1.443216
H 1.629996 -0.275825 1.621602
H -0.102136 1.855741 1.590112
H 2.556413 2.460588 0.590885
H 2.709568 1.790629 2.888231
