48
 energy: -84.836872803019 gnorm: 0.000382014881 xtb: 6.7.1 (edcfbbe)
C            5.86844894040413       -0.11367133767467       -0.58418812044541
O            4.67468630570402        0.54424610530687       -0.99755913777220
C            3.68992779561511        0.62283782691514       -0.03300010055243
O            3.12863334322442       -0.66253602749367        0.14590169678596
C            2.06940467484986       -0.70317235711781        1.08905700088249
C            1.70541760442728       -2.17361781744043        1.29296528375109
O            2.77554529553268       -2.90051191447815        1.83642673681556
C            0.91225140514075        0.17247966410408        0.57775623972935
O           -0.20158380553885        0.15241299308757        1.46301538231749
C           -1.48593936997875       -0.05259433672079        0.94088283185261
O           -1.53681090356542        0.26408456692311       -0.42958813444237
C           -2.86116127484958        0.49664043014579       -0.90574043856836
C           -3.17728489824873        2.00716516710179       -0.94453598211109
O           -4.44832656923318        2.24067387192257       -1.50266559737030
C           -3.93038198909475       -0.24490398369033       -0.08035883438901
O           -5.08111667405642       -0.49280849416577       -0.84806701118859
C           -3.38922690412061       -1.60438584278223        0.38070661746922
O           -4.30828230739698       -2.25637145992589        1.21852001036672
C           -2.04913540522355       -1.47942541668410        1.14303233065615
O           -1.12409432162716       -2.42299954294611        0.67278412567544
C            1.39514869988880        1.61173585716425        0.38161818595266
O            0.39483750815554        2.43800675721114       -0.16678591775356
C            2.64404142601838        1.63411577008819       -0.51944998680981
O            3.24189372607573        2.90216976938071       -0.50907131696433
H            5.67505012234335       -1.16678417276380       -0.37641270933212
H            6.28089367250995        0.37088258023130        0.30485899510644
H            6.55479591848260       -0.01368682241776       -1.41992169189980
H            4.10446453305410        0.97819513397665        0.93365980651427
H            2.42534088600303       -0.29277159298598        2.04880526928618
H            1.38101920587755       -2.59789701059859        0.33777378172762
H            0.88872550795480       -2.23439005021068        2.01004860946908
H            3.52105184668522       -2.84766161223411        1.22188833828261
H            0.60755682167725       -0.23569853080310       -0.39426465370810
H           -2.12019318750834        0.63829705840468        1.51945610940602
H           -2.87572563336721        0.08843581107376       -1.92392361841212
H           -2.39033462128372        2.53592947786994       -1.48863962905097
H           -3.20525543052543        2.39787887074776        0.07640057019011
H           -4.38385428447051        2.24880934576055       -2.46804240099974
H           -4.19836843708112        0.34481964616279        0.80875203905740
H           -5.46952451205835        0.36230659170144       -1.09977763963782
H           -3.20746637871287       -2.20321512604200       -0.52645026823763
H           -5.17124480021727       -2.26614453949089        0.77550998743800
H           -2.24502766436456       -1.62168885239739        2.21440588872098
H           -1.47521620293476       -3.31017176534671        0.84311846436933
H            1.65293938948121        2.04750727303428        1.35468837906115
H           -0.18144801156899        1.89098940963369       -0.72369863250579
H            2.36530527764159        1.34663418181320       -1.54475923448837
H            2.55962152333317        3.55985097362323       -0.72165026025683
