48
 energy: -84.739720995353 gnorm: 0.000904232292 xtb: 6.7.1 (edcfbbe)
C            5.38674263684784        0.48813139838228        1.44612451017821
O            4.58821068108773        0.73180718157617        0.29132192860959
C            3.23487742590066        0.50238068802014        0.46351251820984
O            3.01897788607862       -0.86740259504136        0.71458703079161
C            1.65798269693751       -1.19958994617145        0.88435604573580
C            1.60723811277465       -2.70048054100443        1.19704216338706
O            2.07000391507081       -3.41134025684103        0.07705471481323
C            0.83904201402807       -0.88098674952795       -0.38451309281540
O           -0.52845831595717       -1.26583466312764       -0.27751011321652
C           -1.28571764510370       -0.86451752660776        0.84338885954888
O           -1.39515934565619        0.50718209312611        0.97752943508348
C           -2.18827882179043        1.16344894507615       -0.11373268589514
C           -2.25403508286875        2.64067055799782        0.01568931270201
O           -0.84185923046891        3.20182158837105       -0.46277278994341
C           -3.59059197651251        0.54664931786705       -0.14592439919265
O           -4.30325734697484        1.13399728492529       -1.19937152416020
C           -3.47662483270497       -0.97250184357030       -0.36221495350094
O           -4.78154069045589       -1.51969773606045       -0.39126024625315
C           -2.65221556717492       -1.56122955542849        0.78520957859817
O           -2.43715115164255       -2.94362081326160        0.68607551465013
C            1.03419258819727        0.61173020687600       -0.72258011012171
O            0.34627170716830        1.01418786840881       -1.87780617291793
C            2.52958946153696        0.93240865038154       -0.83018037257072
O            2.66222687449817        2.30816209810153       -1.05330401047437
H            5.32080707690294       -0.55992458448166        1.74033309583134
H            5.06062683506407        1.12616332396272        2.27236007964149
H            6.40177372442136        0.73720789643922        1.15135693653266
H            2.83632600884277        1.09382221433224        1.31757131319347
H            1.25424948694314       -0.62390236957852        1.73190739269921
H            2.24729652313610       -2.88723746326798        2.06824963736774
H            0.57074473315217       -2.97214717698088        1.43040899159131
H            1.99446752952170       -4.36064028394121        0.25097712197041
H            1.21260947898510       -1.50823421617789       -1.20076559113590
H           -0.79110079526651       -1.20235651151829        1.77072868659722
H           -1.71181115311464        0.88431941074655       -1.06088591354692
H           -1.04533841662107        4.09654253065247       -0.80831847039025
H           -2.23528485227318        2.89804685716258        1.08952432809882
H           -0.55879883158011        2.64082280263481       -1.22021545630202
H           -4.09485373499257        0.73246043438440        0.81581715562341
H           -5.18644490812463        0.73363572615157       -1.22509937931284
H           -2.95059804235377       -1.15261882831509       -1.30636001264121
H           -4.81438327457468       -2.26316295260759       -1.00817560706579
H           -3.16507199312327       -1.31820108226310        1.73005933791171
H           -3.29373070156687       -3.39522955688856        0.74854499515100
H            0.61706723457328        1.20911071014591        0.09515903797858
H            0.73287797180164        0.59740845647548       -2.66254088027417
H            2.97893981989022        0.35140083766960       -1.65086312473354
H            3.60338626028341        2.53699203942328       -1.08344087385241
