48
 energy: -84.851533582473 gnorm: 0.000837679045 xtb: 6.7.1 (edcfbbe)
C            5.45099491869637        0.63649963347726        1.31944546490709
O            4.68063623129066        0.67963799996936        0.12040817154686
C            3.32306880635003        0.51737692571940        0.30802200252893
O            3.07832922637357       -0.78964109168911        0.78337900214750
C            1.71548837683458       -1.06951574905531        1.03006098258416
C            1.64826423100917       -2.50160923428061        1.58844852358266
O            2.12499063501213       -2.61056032328851        2.90212880966901
C            0.90663230354647       -0.94896403143936       -0.27747489851918
O           -0.45878830827692       -1.32277214136547       -0.14770574578577
C           -1.24664879223826       -0.78896243001159        0.88270389669815
O           -1.38260193231938        0.60249962166300        0.85933186294492
C           -2.13816853351492        1.13148574324548       -0.23828233973888
C           -2.29057375895913        2.62677253846091        0.06103336512696
O           -2.96108053319159        3.24555975193440       -1.00908623425462
C           -3.50569507932359        0.45003491627397       -0.39863485956900
O           -4.14030975681657        0.82352601853828       -1.59563116669709
C           -3.33399199453582       -1.07373380627439       -0.43506071821679
O           -4.57398442618960       -1.73594289426196       -0.47182061200428
C           -2.60269254848331       -1.50666758787962        0.83288272377453
O           -2.38061571212370       -2.88497237508947        0.90586374912184
C            1.10874927529062        0.46096214040466       -0.87380707169398
O            0.41004578006036        0.63918378907387       -2.07524328337675
C            2.61751698757000        0.73008439799551       -1.04499673505888
O            2.87159060233549        1.98786464590724       -1.59669190903693
H            5.33239969853027       -0.32846277060237        1.81473863653030
H            5.14454172121535        1.44052532003346        1.99511167629223
H            6.47994377233755        0.77961753465442        1.00407526872645
H            2.93663503713418        1.24785946542583        1.05561373034811
H            1.33169482830251       -0.34399280834938        1.76630687260176
H            2.30931032688112       -3.12404521805416        0.98252389264385
H            0.62066199240799       -2.87311817295719        1.49771477500753
H            1.52154683973568       -2.16844239795235        3.51556801976890
H            1.29261544486582       -1.69006695694563       -0.98683623594745
H           -0.78695736056414       -0.98940788741434        1.86134294608885
H           -1.58541168035924        0.99723220068493       -1.17793209172772
H           -1.29017141557198        3.04820778560979        0.20258810047633
H           -2.85326168969399        2.73649489639667        0.99695057518532
H           -2.98329777492670        4.20347086738391       -0.87124124352043
H           -4.14466049166564        0.70427023581224        0.46494998720559
H           -4.03736388746045        1.78414687312405       -1.71485396412445
H           -2.72568383167215       -1.34407544224370       -1.31020893497795
H           -5.09145165311105       -1.36509341626121       -1.20202259005443
H           -3.19200463592482       -1.17134953089037        1.70304682031347
H           -3.18887103349298       -3.33350494651619        0.60819350889740
H            0.68859396216444        1.20308053374851       -0.18422450247287
H            0.79508371390718        0.08832033418674       -2.77288629002534
H            3.05132773683041        0.01256552994090       -1.74986961451516
H            2.53957238981395        2.68902949113674       -1.01745634614468
