48
 energy: -84.845989468433 gnorm: 0.000558585965 xtb: 6.7.1 (edcfbbe)
C            5.45555686951454        0.55219053270496        1.28271397466571
O            4.67513804226935        0.63061389803148        0.09208411344126
C            3.31582914374220        0.50020903964947        0.29209635855273
O            3.04360982174508       -0.80852360736427        0.74750450892640
C            1.67714463061794       -1.05749543626548        1.00657612426098
C            1.58015115679176       -2.49326299398253        1.55072574723181
O            2.06346046723019       -2.62755183261536        2.85961343801085
C            0.85833597018249       -0.89910108028054       -0.29051787453561
O           -0.51501916624704       -1.23935130806952       -0.15226494810116
C           -1.27559147734960       -0.69640665213786        0.89586845726184
O           -1.37394519292617        0.69657344187349        0.89607294262329
C           -2.12707028668517        1.27444566482972       -0.17718437931365
C           -2.26419342772281        2.75792658695311        0.20451839939939
O           -3.05429614849427        3.51377083446400       -0.66585018430107
C           -3.49237813296002        0.60878574537883       -0.39765411806588
O           -3.98775419332746        1.08373733978452       -1.62168902644696
C           -3.35439832783735       -0.92198060615053       -0.43455500327252
O           -4.65322558798954       -1.46238869280812       -0.54835233284466
C           -2.65387355190282       -1.36871214443747        0.85381410878169
O           -2.46417245328094       -2.75378742586659        0.95117104462749
C            1.08857181376933        0.51498501012553       -0.86669171870425
O            0.38327310400808        0.72596277756746       -2.05944477144687
C            2.60081360143183        0.75323201766997       -1.04897697275586
O            2.87686165964206        2.01464477507497       -1.58183747552304
H            5.31423623872379       -0.41456622120036        1.76843179095759
H            5.17874719491878        1.35685585946245        1.97020408597934
H            6.48514131511572        0.66950960240719        0.95904718782044
H            2.95587373217849        1.22722223472764        1.05575614400527
H            1.31986305000718       -0.33059847486381        1.75486926523394
H            2.22123957839665       -3.12557152596361        0.93376763775573
H            0.54303407482590       -2.83849039438817        1.46492697528195
H            1.48059494580218       -2.16904706695734        3.48127455575110
H            1.21837841090272       -1.63828900998865       -1.01568721577576
H           -0.80948237469170       -0.92614023520856        1.86512745699711
H           -1.57187571237447        1.17581869008519       -1.12037007757414
H           -1.25249063367772        3.17914594686764        0.28457871987866
H           -2.73970496466246        2.82251453012544        1.18661375949815
H           -2.76767343500870        3.36370582722333       -1.57822611540301
H           -4.17454417723482        0.87415828859966        0.42486750528538
H           -4.85754942404655        0.68495117406957       -1.77609429102174
H           -2.72982741011709       -1.20115290878153       -1.29098374308658
H           -4.60946033639539       -2.34283159779444       -0.94612847890973
H           -3.22653042603179       -0.99163675382215        1.71464715116573
H           -3.32606823359153       -3.18290507220642        1.06673815430221
H            0.69180609573202        1.25568517940588       -0.16181400625927
H            0.76181738659381        0.18892003902921       -2.77146690530752
H            3.01150342347107        0.03921431832800       -1.77126553613292
H            2.55843036433401        2.71350370144140       -0.99219543543937
