48
 energy: -84.847270780523 gnorm: 0.000611981525 xtb: 6.7.1 (edcfbbe)
C            5.46715776211821        0.37863625376515        1.23685922356017
O            4.64502484221439        0.45249382454517        0.07542849594943
C            3.28915043249286        0.41515639750631        0.32944790796004
O            2.95063220204181       -0.88946220248161        0.75734217713009
C            1.56765927020807       -1.07432002350345        0.98813566389778
C            1.37457605785889       -2.48994335965332        1.57243601075264
O            0.61115114261332       -2.49704111427244        2.75100922280826
C            0.80235587913076       -0.88294099798181       -0.33628159679893
O           -0.56190019941715       -1.26870936806968       -0.27419479553546
C           -1.37038326493197       -0.78904710903862        0.77391463416422
O           -1.49017766681050        0.60370526911657        0.82202438817516
C           -2.21007353705173        1.19147483013179       -0.26768228189133
C           -2.24528940626155        2.70311591051709        0.01557819181701
O           -2.55197845742846        3.47806309612611       -1.10778775053730
C           -3.61673616135611        0.57584718958607       -0.39194224057487
O           -4.37485494026625        1.15868523465115       -1.41310099682879
C           -3.48790297540776       -0.95191653314953       -0.56404261504721
O           -4.72888022250915       -1.56627765660991       -0.76971377115657
C           -2.73634400733340       -1.50055745657421        0.65693903380454
O           -2.59420628271048       -2.88596576430237        0.52927144466680
C            1.04474477120270        0.54435945128991       -0.84917531358130
O            0.41007733622857        0.79651679267079       -2.07769876736391
C            2.56102611575176        0.79888783366327       -0.96574652830197
O            2.82371005024466        2.15611654070335       -1.19707623707173
H            5.31386834069825       -0.56989695724983        1.75416313845449
H            5.24599406749033        1.21130704943614        1.91041842770827
H            6.48720924218898        0.45093236763432        0.87189792408573
H            3.01023275575214        1.14373158418066        1.12013024249024
H            1.22156679120781       -0.32023456277022        1.71393499191859
H            2.36731110717080       -2.92196911489986        1.72757153377702
H            0.82796672599181       -3.10516573309672        0.85469253087924
H            1.15039159271985       -2.19698282189007        3.49680349361449
H            1.22252469959684       -1.58838591776961       -1.06578840321287
H           -0.92339842057462       -1.05160986561626        1.74449798070829
H           -1.66344581682419        1.01217047653924       -1.20511191838586
H           -1.27233124266920        2.98332499414904        0.44063712353496
H           -3.02014567812129        2.91964037623754        0.75326134280163
H           -1.86220321132936        3.36865871938827       -1.77773542939623
H           -4.17120415537227        0.78706584503253        0.53156354125607
H           -4.03408862378775        0.88559864451809       -2.27653707813624
H           -2.90356810639136       -1.18880915101982       -1.45941165132146
H           -5.30490360171618       -1.41946635683765       -0.00566441691458
H           -3.30928321396582       -1.24751601063063        1.56443879477811
H           -2.13588628461801       -3.24111399752929        1.30501595256611
H            0.62565793573981        1.27051547335561       -0.14441002380138
H            0.65506117709531        0.11287173134424       -2.71982192250213
H            2.98463145706527        0.17615924908937       -1.76854551365938
H            2.36784272272846        2.43050695426426       -2.00882115129008
