48
 energy: -84.850031020659 gnorm: 0.000588925188 xtb: 6.7.1 (edcfbbe)
C            5.46382005085120        0.56511078952963        1.24800966547106
O            4.64693303430518        0.66762615014013        0.08467158307001
C            3.29353515197881        0.51596661633831        0.30697518003129
O            3.03134490856371       -0.79777632516347        0.75705110462945
C            1.65965266942973       -1.05822302139337        0.99846287853060
C            1.55988908795257       -2.49282694128256        1.54217049700426
O            1.81183073237232       -2.56685865600305        2.92001876153256
C            0.83984067659176       -0.89309416763725       -0.29590208318506
O           -0.52001670318353       -1.27225316768890       -0.15556129201362
C           -1.29138022697645       -0.77295288254553        0.90482203812261
O           -1.42621428229828        0.61994715623672        0.92552367911117
C           -2.17123550425174        1.17645801850054       -0.16401537397995
C           -2.29249830863010        2.67089185843748        0.15487839595651
O           -2.87797783757948        3.33204498207346       -0.94021030127858
C           -3.55507800755122        0.52479775957540       -0.33575058477914
O           -4.19884934544322        0.97247069268617       -1.49898544138134
C           -3.39227149034526       -0.99735013480901       -0.42292756160534
O           -4.60338933070999       -1.69065311228090       -0.57673407739956
C           -2.65675325691265       -1.47247171413275        0.83699111929916
O           -2.47464246561718       -2.85901705646162        0.86262989188043
C            1.05343383500147        0.53154756605021       -0.83427249436027
O            0.38249938239940        0.68982155088108       -2.05842745793403
C            2.56131673552486        0.77995012159922       -1.01621663233853
O            2.79095068891720        2.06039951804922       -1.53252860743018
H            5.44137979288180       -0.45118889172411        1.64224157891038
H            5.12657345549272        1.26831325470319        2.01460989945553
H            6.46610909717772        0.81954302975986        0.91665608771682
H            2.93706435790670        1.23021134483683        1.08535187859377
H            1.28891452561168       -0.34780655749475        1.75476483762637
H            2.25744368783322       -3.11665422481046        0.97363552106927
H            0.54464349709238       -2.86564481971483        1.39136895066776
H            2.74585393137221       -2.37349596146047        3.08396960395076
H            1.20922375129455       -1.59892759595035       -1.04804184991780
H           -0.82332797331129       -1.00925852482750        1.87220069692612
H           -1.62420263393666        1.03673709633021       -1.10623632080800
H           -1.28812659438175        3.05559394224184        0.36288336366529
H           -2.90257113461676        2.78332136684260        1.06025867870622
H           -2.92480159139132        4.28224957028498       -0.76108381351316
H           -4.17241641575155        0.76119255466119        0.55173682447108
H           -4.01710426941173        1.92276559995226       -1.61209625632428
H           -2.78797293230823       -1.24616471491425       -1.30182734063191
H           -5.29742990682721       -1.27288896634077       -0.04654098694658
H           -3.22730618375352       -1.15824548476849        1.72885222855542
H           -3.19369748761966       -3.26387758100529        0.34817796065087
H            0.66049734521246        1.25508183295755       -0.09980189130718
H            0.85346324803908        1.36068451685957       -2.58155242276602
H            2.95963459701281        0.08339042148861       -1.76137730572729
H            2.66887565466968        2.73494619709197       -0.84839381991536
