48
 energy: -84.850799029472 gnorm: 0.000996923463 xtb: 6.7.1 (edcfbbe)
C            5.39106145760821        0.46827735308611        1.31894754496259
O            4.59139031823368        0.58238997047948        0.14409159800180
C            3.23115838283540        0.44858034764880        0.35368862473371
O            2.94837475899451       -0.87428076351661        0.75847145287525
C            1.56872799552158       -1.10045411992002        0.97498285092493
C            1.39688453370335       -2.52864755763804        1.53021662021047
O            0.89521206070182       -2.54728119684744        2.84128271859763
C            0.80012079064953       -0.89900029868448       -0.34445289660107
O           -0.56381102671293       -1.28449837292090       -0.27428167481571
C           -1.37090378377418       -0.81772133157281        0.77936604700281
O           -1.49864707020572        0.57319876756651        0.85097458720940
C           -2.18606935996874        1.18405931490222       -0.24314769923112
C           -2.30834519050520        2.67478827027555        0.11593137227511
O           -2.80773455301955        3.45619898279613       -0.93284407180311
C           -3.56563831035163        0.55235519522852       -0.47524556109222
O           -4.19622046494232        1.09518162725753       -1.61128192544398
C           -3.46799462054002       -0.97804249753069       -0.58905925181002
O           -4.75272857280227       -1.54721933176821       -0.63700304079973
C           -2.73811528324525       -1.52841444410662        0.63710373254329
O           -2.58244644942975       -2.91114072294417        0.49469467001492
C            1.02553796563004        0.53312068375942       -0.86873606876548
O            0.36743686962352        0.74823827519981       -2.08660611793546
C            2.53560816492636        0.79196354197119       -0.97568455643613
O            2.73068117094546        2.13971216905539       -1.30348620708897
H            5.28617869163814       -0.52485269544274        1.75670812493944
H            5.10116770740261        1.22934302254422        2.04853863222318
H            6.41259506957143        0.63048561131286        0.98822611115616
H            2.87800159533848        1.14987895628303        1.14044395377044
H            1.19868519156058       -0.36904842542638        1.71229072302088
H            2.36410738490285       -3.03483391411490        1.45781863418951
H            0.66698370346139       -3.06405818211086        0.91971211569034
H            1.59075821659139       -2.29607637014126        3.46514513505303
H            1.20955564191435       -1.60172308516546       -1.08261605118856
H           -0.92990775951855       -1.09441712833885        1.74902015506042
H           -1.59332525360921        1.08080517476201       -1.16298164755938
H           -1.31411065657452        3.06412313200481        0.34598582156751
H           -2.93421688984344        2.76660579162991        1.01420458695424
H           -3.65729424869629        3.08238066587381       -1.22364020161740
H           -4.22708180367568        0.78639887118005        0.36807116472598
H           -3.64368700540377        0.93771470211717       -2.39273161620956
H           -2.88803632653259       -1.26010949597853       -1.48113142252014
H           -5.27949530720847       -1.06411870678271       -1.29403557588882
H           -3.33943514481550       -1.28315187178661        1.52345001637456
H           -2.37782825458711       -3.31046169214085        1.35249230705020
H            0.59916206906982        1.26214860517370       -0.17210743981302
H            0.77768037585735        0.21677896779048       -2.78572359106155
H            2.96681239457078        0.13300840757006       -1.74559334084528
H            3.68097582883552        2.31220579001262       -1.38920034570077
