48
 energy: -84.748773432712 gnorm: 0.000610653925 xtb: 6.7.1 (edcfbbe)
C            5.46080798878528        0.25880399250222        1.26237443279752
O            4.62705711747018        0.45935385887129        0.12449825465226
C            3.27312849311162        0.40481165643960        0.39050033967399
O            2.93096192719560       -0.92639698890429        0.71649079155053
C            1.55050465842425       -1.10849294343968        0.95192964546969
C            1.34608186219359       -2.53523674987796        1.47485844872207
O            1.17157885335811       -2.47923791215846        2.87220562848488
C            0.77533049175558       -0.85049318845465       -0.35611776378281
O           -0.59180474205301       -1.22376404802657       -0.28445992085422
C           -1.38363320598573       -0.76796665425146        0.79562978847516
O           -1.49078768920346        0.60908001027657        0.87193903273292
C           -2.31043652712976        1.23230241433156       -0.21740090372070
C           -2.56620314263547        2.68941827078742       -0.04848414452299
O           -1.29895889480297        3.49023737095368       -0.35457859221893
C           -3.68084078179086        0.55043555499166       -0.29245997404376
O           -4.42418144254023        1.06691293815750       -1.36580602047430
C           -3.51988023060756       -0.95580404434192       -0.49059561730393
O           -4.75918466215372       -1.62246338009477       -0.54107882048221
C           -2.73417204003954       -1.49194315091242        0.70208647476072
O           -2.49529745241482       -2.86981546400113        0.63889258733646
C            1.02127004079973        0.61142219389168       -0.76268785192524
O            0.36766949973244        0.98620417068215       -1.94680957725814
C            2.53724510195939        0.88662879875315       -0.86778779075052
O            2.77709569446264        2.26443577394744       -0.98236953178135
H            5.28290804291289       -0.72592206798808        1.69730172720603
H            5.27146893808340        1.03313899580840        2.01099344474707
H            6.47804263009721        0.33325544166136        0.88998110305080
H            3.00589158366575        1.06888880512971        1.23986795941749
H            1.21919990964381       -0.40003400290371        1.72665089067570
H            2.23875938578842       -3.11302134569391        1.21018539049619
H            0.46397511073673       -2.97440637252795        0.99214618891755
H            1.07390923399719       -3.37912369832388        3.21571320227257
H            1.17603213466576       -1.51804858510801       -1.12872043965839
H           -0.91420216472099       -1.06688970356451        1.74734696447371
H           -1.78323855038169        1.02315727486090       -1.15749374620751
H           -0.51320950205483        3.19189061135610        0.14801154503865
H           -2.75212389514336        2.90399145733510        1.01447050839245
H           -1.12613752058442        3.38438196648139       -1.31294614316072
H           -4.21939051286556        0.72167862485142        0.65588621232593
H           -4.30108101874534        2.03656135155055       -1.34646988718602
H           -2.95151827414948       -1.14531744998041       -1.41364189213214
H           -5.33087516951996       -1.13414074047882       -1.15302469421394
H           -3.29918120558044       -1.24696823908990        1.61780200375778
H           -3.32846967708138       -3.29995370401159        0.38604503174764
H            0.61561761166008        1.25833279165942        0.02202630383468
H            0.56532430830804        0.35233647211002       -2.65173290242455
H            2.96287996227325        0.33261971897592       -1.71407604469744
H            2.62629071023995        2.54958388394275       -1.89649766714311
