48
 energy: -84.848898703879 gnorm: 0.000710874838 xtb: 6.7.1 (edcfbbe)
C            5.36491601147475        0.53978465569229        1.31845645925662
O            4.56900881091249        0.54892951194004        0.13644319355874
C            3.21209278436513        0.43096074183789        0.35830191459299
O            2.94183622691610       -0.91037064527766        0.71438826857782
C            1.57474909596257       -1.20285467736753        0.93577573651683
C            1.52287574516061       -2.69693962056993        1.30436440145763
O            2.14913920020362       -3.48753697341320        0.33221400939420
C            0.75069283361984       -0.92567112021894       -0.33468464229865
O           -0.62071927579469       -1.28503843882670       -0.21712520241257
C           -1.38771531686846       -0.85889189624244        0.87564693196771
O           -1.50602556433767        0.52531404781677        1.01813499743546
C           -2.21410613526981        1.19195983029594       -0.03909419735861
C           -2.31028097461462        2.66531193182379        0.39627099013562
O           -1.07478588022081        3.17861704432787        0.82168418377863
C           -3.60903510178324        0.58435842644698       -0.28944283599536
O           -4.19906496722217        1.11178471035991       -1.44834742774889
C           -3.47866519225197       -0.93321823223189       -0.48403530089849
O           -4.70369285908887       -1.57949850706836       -0.70354193970982
C           -2.76815757024018       -1.51982827554283        0.74236064497092
O           -2.62302251725811       -2.90867873546949        0.67004713560982
C            0.97299729617372        0.52186931639801       -0.79957058907836
O            0.31567933601131        0.80316368883106       -2.01014251050807
C            2.47718742919163        0.81910687606343       -0.92966683405573
O            2.69412631682811        2.18607711084915       -1.14928934130759
H            5.22864726344789       -0.39341118051373        1.86761214694276
H            5.10291762446572        1.38835301723748        1.95655749439655
H            6.39088658771117        0.63056010080347        0.97479142044604
H            2.88015239567759        1.10353574709608        1.17539766211651
H            1.20077224486323       -0.58553270156727        1.76546928978181
H            1.99913063072339       -2.83622852355739        2.28287031817313
H            0.48443629860272       -3.03067365592422        1.34962127949123
H            3.05443330803808       -3.16016593070350        0.21642905242162
H            1.10807464608063       -1.60949119977199       -1.11594544150138
H           -0.93075312203780       -1.18695320676842        1.82176354895614
H           -1.64012616049814        1.11366448746976       -0.97059266654561
H           -2.60851811473066        3.27931749088374       -0.45346597013843
H           -3.05265122258053        2.75398239733782        1.19986096136130
H           -0.79965119055239        2.68503912230682        1.60631241379413
H           -4.24506119858535        0.76792772355981        0.59249525369227
H           -4.46404491810791        2.03130451065472       -1.30987585281982
H           -2.87741902811590       -1.13080675331575       -1.37663360762319
H           -5.36463398607937       -1.27539592145907       -0.06372027593912
H           -3.34013714150074       -1.25670269807770        1.65004363073243
H           -3.32323157701955       -3.25583556347793        0.09181220366690
H            0.55528978895548        1.22397785419886       -0.06955959992576
H            0.56139397204543        0.14749067285613       -2.68055134228870
H            2.91229748854877        0.22224241447014       -1.74692807977882
H            2.08874766755938        2.48650390766426       -1.84745093451343
