48
 energy: -84.854768168608 gnorm: 0.000438349582 xtb: 6.7.1 (edcfbbe)
C            5.39035838905026        0.42713066558725        1.31874730107412
O            4.57913727281251        0.52468174491508        0.15115062753043
C            3.21774658705551        0.41282094403044        0.37026253577337
O            2.92053940044780       -0.88522345388850        0.83739389230704
C            1.53652092243053       -1.09774435673130        1.05438997690965
C            1.36747002801931       -2.51183742293128        1.63700022517342
O            1.42338777937491       -2.53565126995278        3.03819152225767
C            0.77167070959205       -0.94068080186071       -0.27173839556527
O           -0.60310801001117       -1.28073323058243       -0.18691212601101
C           -1.40389863987436       -0.74139298312774        0.83435151434265
O           -1.50038043306022        0.65377447832982        0.84004938351529
C           -2.18580904809643        1.23851756574432       -0.27250837967982
C           -2.30156258297138        2.73857433371488        0.04649756344219
O           -2.75139232575852        3.49844318741613       -1.03966845458682
C           -3.57554967907199        0.60908029258120       -0.49356963304702
O           -4.21860301913541        1.16519269197511       -1.61224249761277
C           -3.43552808774358       -0.91522032842323       -0.59478603264934
O           -4.65038736268221       -1.57320209817049       -0.84504327685159
C           -2.78153778226004       -1.41279395997777        0.70162847828153
O           -2.62226185802652       -2.80259210983537        0.72846972406850
C            1.02029659689482        0.46190487483038       -0.86335947678788
O            0.36373128236115        0.62497231889285       -2.09023175992753
C            2.53179944145856        0.69803057291119       -0.97788084248686
O            2.74488222231150        2.02505028409710       -1.37183297252556
H            5.32547417317126       -0.57408908785158        1.74504004435375
H            5.08020134321315        1.16849023803032        2.05996152032201
H            6.40299191925778        0.62895027704390        0.98202322680897
H            2.87196057980239        1.15584101590066        1.12132915331719
H            1.16672591288600       -0.35077146691612        1.77471726158406
H            2.13796977105359       -3.15190088271842        1.19365940467260
H            0.38166829079284       -2.89603750878375        1.36448496603926
H            2.32586456806220       -2.34708370655199        3.33198095724114
H            1.16054727930322       -1.68769923179886       -0.97572105569521
H           -0.98597166178951       -0.98455336878857        1.82198612221130
H           -1.59296788816123        1.11106651084854       -1.18878055149439
H           -1.31151487824862        3.11983547433035        0.30586628571335
H           -2.96009661046745        2.86291591681233        0.91740240463281
H           -3.58507046422503        3.11246232055420       -1.36149822710976
H           -4.21875555760690        0.85414727517327        0.36219482979404
H           -3.79703906047809        0.84624801363225       -2.42389844292871
H           -2.77805786258642       -1.17912696321595       -1.43106079070496
H           -5.34603392554858       -1.22269407444313       -0.26948992708141
H           -3.38874930260671       -1.08977078160690        1.56473025110410
H           -3.34708670874237       -3.20084840313599        0.21659132763272
H            0.60181829468328        1.22736677599983       -0.20187883153749
H            0.78762502458128        0.08125942964541       -2.77184766252842
H            2.95901717299718       -0.00341145893998       -1.71186323130281
H            3.69814079715536        2.18271778635606       -1.45380491326314
