48
 energy: -84.746002503167 gnorm: 0.000428380424 xtb: 6.7.1 (edcfbbe)
C            5.46413893915971        0.42411772906564        1.43308278765734
O            4.65358701888889        0.64097895754316        0.28144596947503
C            3.29914542870887        0.49532106751785        0.50347285689607
O            3.02873802034865       -0.86821523175807        0.74709962292356
C            1.66379915381226       -1.15628644776613        0.96284603259168
C            1.59092074124339       -2.64593463257014        1.33958990059312
O            2.19404559411610       -2.93462615557993        2.57065454528249
C            0.86205124025055       -0.84980947637419       -0.32058031647520
O           -0.50225142166123       -1.25202237544698       -0.26128866345619
C           -1.29765453482838       -0.86567193317142        0.84885014982120
O           -1.41907887463993        0.50056949078408        0.99610440002995
C           -2.21732889249871        1.13716685323815       -0.08005394603707
C           -2.30567277786917        2.61966600978724        0.00113266052054
O           -0.92637951370740        3.19972114417868       -0.51653517316960
C           -3.64061080000426        0.56147209265226       -0.07188840490048
O           -4.39070497819077        1.16392518961544       -1.09168103623892
C           -3.57706034093828       -0.94825895287764       -0.31413604274531
O           -4.86888862439116       -1.49530460080260       -0.20782969904370
C           -2.64701242186465       -1.59847783526016        0.72012419384511
O           -2.45615049435447       -2.96387770592528        0.45758009802286
C            1.05931353728631        0.64232855005064       -0.64926950924149
O            0.39279176967857        1.05236886225962       -1.81941463819446
C            2.56020451318939        0.98277187568147       -0.74789534423797
O            2.74695150917307        2.36873251233032       -0.83035960115458
H            5.33313664175204       -0.59325596630476        1.80623987067726
H            5.20714959839161        1.14306558258327        2.21629996675639
H            6.48569665932361        0.57887067536693        1.09937296881492
H            2.96940091439455        1.10046853752135        1.37478402547770
H            1.28941462222575       -0.52564052229319        1.78569558403469
H            2.15968272378509       -3.20858166337909        0.59697825732667
H            0.54559693426912       -2.97607912621075        1.32108596839563
H            1.70909909899387       -2.51030107758474        3.29247073733393
H            1.26720966733022       -1.46119397153912       -1.13537027491005
H           -0.82011427733818       -1.21102655498268        1.77925675003901
H           -1.76344313829272        0.82853038494166       -1.03150971890286
H           -0.63289944760928        2.60828526362451       -1.24668742155930
H           -2.28935609697245        2.92110554922773        1.06060169564615
H           -1.14848326904602        4.07621147445863       -0.89388539769954
H           -4.11369969733502        0.73933690177326        0.90795254520723
H           -4.15412008895400        2.11575807422482       -1.07408450125422
H           -3.18110383867182       -1.11511217253249       -1.32907178868434
H           -4.79516056136308       -2.46272761358110       -0.21508674328949
H           -3.14608139304208       -1.54174866535934        1.69432026849633
H           -1.91857912391099       -3.04985987046628       -0.34541201097835
H            0.63236577411952        1.24128943730375        0.16252527382596
H            0.64552158352225        0.49067947088822       -2.56749559556740
H            3.01350597083540        0.46608678992844       -1.60555526543298
H            2.45169091615515        2.68396195083134       -1.69880607913521
