48
 energy: -84.854069542888 gnorm: 0.000606501527 xtb: 6.7.1 (edcfbbe)
C            5.47453202278981        0.58398122462071        1.24616745940219
O            4.65526253270538        0.62971209821609        0.08094547495417
C            3.30124387361148        0.46554991089934        0.30821363319587
O            3.05271094886674       -0.84920876509793        0.75693743062877
C            1.67975216032858       -1.10839378739285        0.99641599638613
C            1.58684000066602       -2.53599142354419        1.55747763403481
O            1.94603936683975       -2.60667358016313        2.91086318602871
C            0.88201107606303       -0.95728513511348       -0.31109197950720
O           -0.48816608231847       -1.31417128108390       -0.20077602850390
C           -1.27408809335267       -0.78289808688245        0.84243742894258
O           -1.38210822300441        0.60859120354374        0.85698585993423
C           -2.11086620484232        1.21126226981182       -0.21706905131909
C           -2.17944764870253        2.70121414570967        0.15905282962171
O           -2.96173405965838        3.48455014553127       -0.69395423726144
C           -3.49643322243649        0.58227138808422       -0.40643195487338
O           -4.04940831626240        1.09606456392927       -1.58995898240651
C           -3.36371027833584       -0.94905817945964       -0.50988205724975
O           -4.61764629019414       -1.54668586636854       -0.72658124097367
C           -2.64804222854029       -1.48083373001480        0.73450767672264
O           -2.51966781103587       -2.87252626443067        0.74689579037903
C            1.08907358545673        0.45839856231738       -0.88972312534244
O            0.40452040751238        0.62792387979611       -2.09972687488806
C            2.59091521314965        0.73841920723176       -1.02895916906840
O            2.75647512731783        2.07388012095122       -1.41702194388677
H            5.45108841290476       -0.41087958435377        1.69102282507549
H            5.13909166972157        1.32593939529952        1.97557696029337
H            6.47718725921313        0.81891870795207        0.90143857195991
H            2.93405290421438        1.18450691306390        1.07193519657747
H            1.30443041309919       -0.38726778812898        1.73945996839146
H            2.22251891017938       -3.18338802523689        0.94336229372622
H            0.55471774990399       -2.88483848306627        1.49901025703645
H            2.88338867630083       -2.38486738711877        3.00270465519956
H            1.26717049207815       -1.68834536069299       -1.03320318416365
H           -0.82897661314260       -1.02367850560067        1.81857140669405
H           -1.56597882082500        1.08754647532027       -1.16295230147126
H           -1.14893975250424        3.08038757937525        0.20968928156506
H           -2.62635449276773        2.78800645646442        1.15266532016211
H           -2.68373680803525        3.34371631489761       -1.61020484390064
H           -4.13412317775363        0.83818418199599        0.45631874910178
H           -4.80853804704174        0.54318769824353       -1.83548375121479
H           -2.76750637472305       -1.18445042323967       -1.39937384979521
H           -5.10411761428719       -1.61039365605894        0.10778903348629
H           -3.22560142020058       -1.22565243480889        1.63056334053941
H           -2.04711975304533       -3.15461748366079       -0.05072220035228
H            0.66541474309794        1.20181794303393       -0.20667291867764
H            0.81938578728607        0.09891597922720       -2.79808936217525
H            3.02804601555728        0.05498899970447       -1.77379162770572
H            3.70306799825898        2.26202086108521       -1.50963459085857
