48
 energy: -84.745421845225 gnorm: 0.000875808267 xtb: 6.7.1 (edcfbbe)
C            5.47515550757385        0.61881476478599        1.28901952212744
O            4.67824631062239        0.71582888928878        0.11163631054576
C            3.32883023138693        0.50259267207168        0.29846271428357
O            3.10776759291724       -0.84249484028851        0.67635148114256
C            1.74402507978899       -1.15131771385383        0.90088504619129
C            1.67104237447058       -2.62054750477315        1.34485856467212
O            1.94532497639075       -2.79258478116762        2.70878492833756
C            0.91060107287563       -0.92472020262454       -0.37345332768125
O           -0.44592091217324       -1.31300534861349       -0.23261026536978
C           -1.20458529894734       -0.86684575256900        0.87162844115790
O           -1.33423932171747        0.50876386015447        0.97088022492871
C           -2.09163756918886        1.13158967709486       -0.14068431448749
C           -2.11889501749953        2.62761001537997       -0.08914105190480
O           -3.26806597614252        3.03979650794482        0.96347865672055
C           -3.48767211966594        0.50435945659046       -0.16903499261137
O           -4.33874706705535        1.11691338461457       -1.10526797705357
C           -3.35605658548536       -1.00661667034158       -0.40465450039142
O           -4.61562718330861       -1.63824925159620       -0.44430155584705
C           -2.56443354357713       -1.58256146378896        0.77078829980139
O           -2.33821766284425       -2.95976942055952        0.66973649874755
C            1.10789843801715        0.51399418664376       -0.87733967999221
O            0.46321817451045        0.66053892542686       -2.11749954417909
C            2.61107823781993        0.80296606402567       -1.02468785845165
O            2.82325759305667        2.10615734876679       -1.48791263307038
H            5.49497567081421       -0.40825803274014        1.65390108705883
H            5.08784246290372        1.28165599445563        2.06779395395518
H            6.47002665149818        0.93168001773349        0.98626562788660
H            2.92874572480994        1.16196173947969        1.10336904001178
H            1.36029529144782       -0.49921365698719        1.70256466232311
H            2.36538245561173       -3.19367880919471        0.72129608076998
H            0.65664941366868       -2.99157624625052        1.18209630649214
H            2.88077808280314       -2.60502398498046        2.87168955158874
H            1.27177537424065       -1.60039444655905       -1.15824992534809
H           -0.72686216728871       -1.17892841795887        1.81395346568408
H           -1.56322974050843        0.85395255579849       -1.06432055144990
H           -1.20964618210062        2.94741819396829        0.44616618926859
H           -3.11881149036298        3.99512987675049        1.11226105358779
H           -4.08615524489414        2.94897641710442        0.43049479323784
H           -3.96661832929748        0.63299107443758        0.81056740322439
H           -3.84494876023558        1.29738674182580       -1.91857610474885
H           -2.80073235271906       -1.20469711325351       -1.33477552625641
H           -5.22272874943942       -1.06617948479063       -0.94112520736217
H           -3.12057884721920       -1.36079768802949        1.69813102528679
H           -3.17560665947516       -3.37917442120899        0.41394671686226
H            0.67689420390253        1.21875918672400       -0.14684571650328
H            0.87197362260681        1.40820090790006       -2.58627654880126
H            3.03590699384167        0.14392988557263       -1.78923646513383
H            2.63028931801270        2.75354082532656       -0.79349208435306
