48
 energy: -84.851796314040 gnorm: 0.000813269094 xtb: 6.7.1 (edcfbbe)
C            5.42344860948168        0.66680237289194        1.28151603246703
O            4.63559544021008        0.71392712139587        0.09498506441585
C            3.28072609723340        0.54765073097478        0.29656126419748
O            3.04282604271899       -0.77055071727040        0.74453706770102
C            1.68311686970821       -1.07332648110074        0.98118296158624
C            1.64180596703792       -2.52789406763901        1.46785149409124
O            1.95213226558157       -3.37997082905415        0.39489644729771
C            0.85161883723095       -0.88284596626635       -0.30142457840327
O           -0.51755994204775       -1.23839135718549       -0.16208965862264
C           -1.28695440148554       -0.74336685243804        0.90620253278676
O           -1.40645296277664        0.64600241100326        0.96616133586233
C           -2.17496625436823        1.26325434918609       -0.07558191004964
C           -2.32116020677630        2.73876192258980        0.31754029912822
O           -2.91708880328714        2.89748722509080        1.57915269799778
C           -3.55200377134403        0.61277431403780       -0.24298890104524
O           -4.16151686892486        1.18970321090137       -1.36971606829715
C           -3.39556854414364       -0.90662555222256       -0.41847983290148
O           -4.63978142348802       -1.52137003358843       -0.63994101529392
C           -2.65195789723677       -1.46013533940234        0.80124843395443
O           -2.49269383517813       -2.84796339327064        0.77839906756212
C            1.05361299715404        0.54486834573702       -0.84582856504316
O            0.32534104008863        0.76988204323704       -2.02252810531119
C            2.55920514335327        0.80023871318421       -1.04039612322248
O            2.82395479363066        2.06716333163646       -1.56641808005404
H            5.32702613086306       -0.30590706361763        1.76569318029703
H            5.11721318324565        1.45834211410597        1.97165313696279
H            6.44561462188423        0.82748168094323        0.95293028449244
H            2.90427793106003        1.25778591473799        1.06871890225586
H            1.30228642688349       -0.40465260112504        1.77036303025369
H            2.37836163977571       -2.62395036191213        2.27343531789140
H            0.63905101172552       -2.74590685332746        1.85727162471174
H            2.05757777588493       -4.28382706017558        0.72440741963700
H            1.21795359475982       -1.60319614663949       -1.04208386887772
H           -0.82319403459521       -1.00766406843087        1.86891273673460
H           -1.64679741313944        1.19197798910230       -1.03391785190161
H           -1.33534269170964        3.21702447961403        0.29399849551121
H           -2.97710584822669        3.22320362046367       -0.40621295509755
H           -2.36627676687954        2.44148849546239        2.23179112417627
H           -4.15616455843141        0.81826348052173        0.65738645630544
H           -4.87814789939630        0.60140317442816       -1.65911072479624
H           -2.80591548594631       -1.09720095762162       -1.32252575098957
H           -5.11721829532750       -1.61815363642567        0.19677690107183
H           -3.22518518803704       -1.24085181864696        1.70978812301886
H           -1.98331710915958       -3.09299536924595       -0.00899980446544
H            0.65745848185097        1.26658785179487       -0.12091484658417
H            0.70397438190493        0.25768194041773       -2.75187197401011
H            2.97245210110097        0.09276440323545       -1.76745198208678
H            2.48693382963997        2.75921728602855       -0.97920685086282
