48
 energy: -84.850360496165 gnorm: 0.000688914693 xtb: 6.7.1 (edcfbbe)
C            5.50802363815796        0.49044521482908        1.17361670771763
O            4.68149148190428        0.54657178017531        0.01469443930697
C            3.32754030985000        0.43429832364495        0.25678351872226
O            3.04334633255960       -0.87706861387970        0.70542601864757
C            1.66950784527792       -1.11458601835254        0.95518214563101
C            1.53936906532932       -2.55031573784386        1.49446778897166
O            1.65757183105588       -2.62208082792305        2.89002077144661
C            0.85383164647995       -0.92638643945971       -0.33843108284086
O           -0.51279402944322       -1.28897844982150       -0.20742052551132
C           -1.27411584007223       -0.78732749001093        0.86208457970027
O           -1.38715214784125        0.60465553952862        0.90618344090786
C           -2.14161086186179        1.21635515344234       -0.14722225144036
C           -2.28687699480230        2.68673884743641        0.29002187430395
O           -3.28359954399031        3.40232858229760       -0.38158701484189
C           -3.50864150068824        0.55819417771243       -0.39029001743245
O           -3.99390927246878        1.06002797960937       -1.61018191755801
C           -3.37118129422511       -0.96979567707911       -0.45733882114334
O           -4.61819569827874       -1.59927696012219       -0.62559691975624
C           -2.64929834857830       -1.46892215612905        0.79302518436612
O           -2.48068151106048       -2.85840325780102        0.80900648823285
C            1.07748349697964        0.50313750756679       -0.87162432670941
O            0.36306998091727        0.75757369880636       -2.05015201460727
C            2.58946423274829        0.73042637553485       -1.06350126990847
O            2.87583352122668        2.00448444106993       -1.56031414361302
H            5.43724164418722       -0.48921576484098        1.64730164770021
H            5.22085582011207        1.26998203446629        1.88499878920981
H            6.51780332316208        0.66288180139492        0.81322157454425
H            3.00155538999261        1.15474613246812        1.04045356875086
H            1.31333496305101       -0.39926684929536        1.71372898931459
H            2.29512344056231       -3.16497703639484        0.99522306949027
H            0.54660003672569       -2.93574509658760        1.25223274422606
H            2.57347170352017       -2.44787853516327        3.14805016316006
H            1.22253911201680       -1.64170271556633       -1.08397370423215
H           -0.80487564094078       -1.04778060781849        1.82232598550706
H           -1.58801447101772        1.14882515970127       -1.09328031419603
H           -1.31121707777340        3.17835807940809        0.18051516925546
H           -2.56010424523935        2.69880827814789        1.34880828571808
H           -3.19378442613577        3.26446325272429       -1.33651247921461
H           -4.19261317015605        0.82692283469863        0.43261432535678
H           -4.76634622617483        0.53936007979006       -1.87981421078470
H           -2.78016794448752       -1.23915021770640       -1.33901717776307
H           -5.19258610892236       -1.40258822502488        0.13070033970422
H           -3.21157989570347       -1.15147663115991        1.68885539856592
H           -3.18880663137864       -3.26068153051785        0.27852455880811
H            0.69307664484527        1.22345448751603       -0.13913823830358
H            0.71823805105722        0.22590296370179       -2.77767597049250
H            2.98304071286021        0.03540223795280       -1.81348509504914
H            2.55126267544917        2.68867988925691       -0.95702908411803
