48
 energy: -84.747038140328 gnorm: 0.000602566004 xtb: 6.7.1 (edcfbbe)
C            5.38652464755859        0.72651666908900        1.30671842545754
O            4.60048431099204        0.81206151066504        0.11942221216436
C            3.24781144073914        0.57519484796737        0.31081066411318
O            3.05773861049399       -0.73497476551414        0.76828116159942
C            1.70044134946385       -1.05593017628043        1.03952086968151
C            1.78607994618067       -2.46154853605434        1.63456492670212
O            0.35175375646048       -2.91667011670680        2.01011120034409
C            0.87669995718411       -0.92846413842071       -0.27559145457407
O           -0.49304596723130       -1.28422432799797       -0.10751371928571
C           -1.26597767237111       -0.72614368491186        0.92699198200722
O           -1.40365258813187        0.66296634838472        0.87572946832838
C           -2.15579822891316        1.14642925220412       -0.24234406952654
C           -2.27036063692496        2.65930324093302       -0.03316963381370
O           -2.91108131502875        3.23378397474948       -1.14645774131382
C           -3.53455557630030        0.47575167771700       -0.34126768447690
O           -4.21251981535467        0.82784232594789       -1.52113876493992
C           -3.36899960780512       -1.05034486553577       -0.35671915718833
O           -4.61045008466735       -1.71050098538261       -0.35681308039957
C           -2.60660032945829       -1.47060684802313        0.89681381670994
O           -2.32646040647630       -2.84175523777510        0.94536306057883
C            1.06245077256418        0.46706064477733       -0.89033063672239
O            0.41256249239492        0.52207185069969       -2.13890704893531
C            2.55376922505806        0.77039966800369       -1.04262986424655
O            2.67487423882082        2.08715901653662       -1.51488580521572
H            5.29805327496407       -0.26733786852877        1.74646304327765
H            5.05946363146077        1.48066364374837        2.02807464254761
H            6.40682313787529        0.91855342625171        0.98882207099609
H            2.82486300898192        1.29154180275941        1.05225757560268
H            1.30661823296900       -0.32805777649213        1.76986432178643
H            2.07719128836546       -3.11867579482660        0.78813124553601
H           -0.27251281862957       -3.07003976816341        1.25997323115737
H            0.48248601306218       -3.74770209285526        2.50993100637501
H            1.23899175126678       -1.66579968519531       -1.00145470872800
H           -0.78848914802283       -0.88935412358309        1.90425571871757
H           -1.61755523756285        0.93786605624082       -1.17759862123698
H           -1.25876566640600        3.05897402505915        0.09876249684306
H           -2.83993249929298        2.83913358660100        0.88770620101063
H           -2.90739050533705        4.19805338868691       -1.06297692355552
H           -4.13787147585021        0.75383008267504        0.54058206149074
H           -4.07857890271899        1.77669454180852       -1.68873155128244
H           -2.78157643481030       -1.32979178424895       -1.24440466163962
H           -5.14905860110238       -1.34098025473357       -1.07166700412095
H           -3.19200242658847       -1.16851273601661        1.77880628745618
H           -3.13739402838497       -3.32570832710597        0.72218849762801
H            0.63802975084211        1.22350467363928       -0.21095182713150
H            0.75173352166420        1.29560014566542       -2.61690534635204
H            3.00360714363564        0.05636961506315       -1.74911604979055
H            3.61492848052964        2.31736884040179       -1.56166085605614
