48
 energy: -84.750526278324 gnorm: 0.000346432386 xtb: 6.7.1 (edcfbbe)
C            5.44045578231528        0.51565931850824        1.34817921487458
O            4.60951539793042        0.74337214346594        0.21281115221161
C            3.26153055731686        0.52462297345295        0.43178954456420
O            3.03821059028143       -0.84485255160418        0.68576584733231
C            1.67597767202754       -1.13407535717268        0.92377253765465
C            1.58418935430808       -2.58240342210174        1.41287911912497
O            1.64725337822257       -2.57990157511848        2.81989312479721
C            0.86749723721030       -0.89708045104903       -0.36885309648880
O           -0.49110869879697       -1.30348893779327       -0.27088896658990
C           -1.27179861310804       -0.85830579327381        0.82945045800729
O           -1.39236666983144        0.51675853520517        0.89041483629041
C           -2.20517619577821        1.07531860747605       -0.24377899960538
C           -2.32854873882131        2.54912376712210       -0.32374439652023
O           -1.04777697937221        3.17085178632658       -0.88920261948819
C           -3.60990367073304        0.47693556430685       -0.13799725773374
O           -4.44574406352370        1.00185186602083       -1.13629559590532
C           -3.53111081388833       -1.04247626098893       -0.31418247796054
O           -4.79811875330338       -1.64535953406642       -0.20799514473087
C           -2.61552750554082       -1.62297786385276        0.76536028053271
O           -2.38224243307416       -2.99627739061749        0.62280869918521
C            1.03406557041120        0.58801107546023       -0.75262674518717
O            0.35519555450696        0.94303756111364       -1.92801236552114
C            2.51706975536079        0.97252079092257       -0.83695404210901
O            2.56847027704363        2.36497126025896       -0.98673228345749
H            5.36037164813279       -0.52061837995492        1.67825849628875
H            5.15553411469995        1.18458554938494        2.16505942119302
H            6.45071716184446        0.73265349873392        1.01451702585370
H            2.89906351113897        1.11469933784486        1.30178614719669
H            1.30330337031953       -0.47157783901427        1.71980347195696
H            2.42630010966712       -3.13382138218230        0.97956188744941
H            0.63908385128291       -3.01874750425427        1.06809446612784
H            1.61743831112515       -3.49203954765130        3.14250891091772
H            1.26977920012545       -1.53953627141327       -1.15993512531814
H           -0.77837330510065       -1.14790593491868        1.77087610531898
H           -1.75134599314868        0.68076650329231       -1.16138353055855
H           -0.32820954831208        3.27090019551378       -0.23134108086583
H           -2.42782567415558        2.98475213439430        0.67819113193872
H           -0.71458150634257        2.56394612815208       -1.59303228144124
H           -4.02575317885624        0.69936624383476        0.85967630521105
H           -4.14850306675081        1.92963003454696       -1.27048972420452
H           -3.10080372871620       -1.25391538635624       -1.30774454026318
H           -5.41571129629533       -1.11969195136417       -0.74078102413627
H           -3.11551505032700       -1.50424676826854        1.73265672767093
H           -2.08151999051334       -3.16930977665580       -0.28221565470408
H            0.58190132883744        1.18220734296392        0.04725959965427
H            0.75243302106465        0.50801317003035       -2.69698135466788
H            2.99121267384512        0.46135415630423       -1.68777217566610
H            3.48918303059718        2.64882522336321       -1.08354907654918
