48
 energy: -84.847590706569 gnorm: 0.000469772333 xtb: 6.7.1 (edcfbbe)
C            5.47698256170030        0.59314296785117        1.30698378803903
O            4.66748992046273        0.71681978525111        0.13954683835182
C            3.31587285938167        0.51567948364107        0.35553271914266
O            3.09798188883232       -0.82122676220649        0.74277683890481
C            1.73992389016315       -1.11098702381185        1.00702954204890
C            1.67924631953288       -2.56737369961300        1.49805114333392
O            2.20450256798325       -2.74359358834283        2.78583295670157
C            0.90534904285581       -0.92395114131856       -0.27574716414811
O           -0.46171055018346       -1.28754705388997       -0.13455856318112
C           -1.21756981234539       -0.78606655211704        0.93746522223132
O           -1.32918723776469        0.60405473781454        0.97191133584721
C           -2.07330719378933        1.18513706072501       -0.10751270053090
C           -2.07043530861382        2.70362199056514        0.13691799534201
O           -2.51055642742295        3.09176738410112        1.41135118435177
C           -3.48248064186963        0.57356138151427       -0.21621645363934
O           -4.15779581495106        0.99284274299369       -1.37669710427456
C           -3.35897453757272       -0.95381949936004       -0.32367872773103
O           -4.61890490779983       -1.57699015409150       -0.33564399642945
C           -2.59080748215476       -1.47214331277167        0.89016750130779
O           -2.40054882669810       -2.85675714097193        0.87475376785902
C            1.09464006229237        0.51065424990826       -0.81752422375948
O            0.39616234802492        0.70739540728114       -2.01592395097587
C            2.59050003907136        0.82218290788789       -0.96526019055896
O            2.72580027862074        2.17266883510876       -1.31248253458895
H            5.38733768318651       -0.40913581407229        1.72771594719398
H            5.17879232087531        1.33563702711161        2.05253378455889
H            6.49362366914845        0.77741344072034        0.97322777046249
H            2.93575868711711        1.19401201455202        1.15065881751078
H            1.37580992425967       -0.41838047167658        1.78312724663079
H            2.30985316100522       -3.16695479344931        0.83900374850895
H            0.64484420422538       -2.92423517957460        1.42957586354874
H            1.63259903585094       -2.32170282476843        3.44235602003944
H            1.26790617777044       -1.63475598475616       -1.02797362035892
H           -0.74070801573481       -1.03791840914718        1.89545286861990
H           -1.56242097769152        0.99353674963088       -1.06075198481166
H           -1.04148221873691        3.06059940476869        0.06373733197111
H           -2.65852280204556        3.19034060373131       -0.65103518285553
H           -3.41353751239901        2.78158779273539        1.56435464926253
H           -4.07356474172323        0.80250839900954        0.68400250208399
H           -4.34176742048010        1.94139207348872       -1.34553470702455
H           -2.79517153246765       -1.19856210898147       -1.23500725301121
H           -5.13742049643421       -1.20163336576643       -1.06316245735010
H           -3.14159768752836       -1.17584873064910        1.79881961973850
H           -3.23756334907935       -3.27071430251156        0.60808286668364
H            0.67039324872045        1.22970832538589       -0.10944967846593
H            0.79571289813634        0.18044552406394       -2.72474032503138
H            3.03143747896200        0.17058339586730       -1.73567630652743
H            3.66866822491346        2.38373820712372       -1.39363174824645
