48
 energy: -84.829258655118 gnorm: 0.000693946564 xtb: 6.7.1 (edcfbbe)
C            5.62629270830763        0.33390854329703        1.19565926871833
O            4.79242439616468        0.49829106777202        0.05073648016074
C            3.44541799866637        0.28930582206327        0.28091820304845
O            3.22384314452133       -1.07805481027807        0.55069080365269
C            1.86793857430093       -1.38947936375419        0.81505526217817
C            1.82167489619167       -2.90093298900816        1.09748154742478
O            2.37905847505038       -3.64453495631050        0.04994807150915
C            0.97397955862964       -1.02892818714277       -0.38490755222932
O           -0.39402921739999       -1.35140874837671       -0.19004565191443
C           -1.07340161521149       -0.95369591821717        0.96877304786991
O           -1.11928392664433        0.43504197258729        1.16109441278671
C           -1.97076166355876        1.18607198651219        0.35408125134695
C           -1.62565510780599        2.41842505311303        0.01755553305698
O           -5.21019098410304        3.36087246285346        0.19740849065316
C           -3.32168432756332        0.58398031091726        0.01957839848884
O           -3.95591083684564        1.20898548093791       -1.06371018051283
C           -3.18058988243633       -0.90860364008918       -0.31025458633474
O           -4.43561597891212       -1.51939587367368       -0.48038128176204
C           -2.47373918706897       -1.57374273376551        0.86871348786953
O           -2.34773448640809       -2.95931524527283        0.74093140096827
C            1.18800496035141        0.43595581985151       -0.79481997450605
O            0.48072286156232        0.67105373167137       -1.98371588622164
C            2.68425025859370        0.71558693514971       -0.98120057823909
O            2.82514088636601        2.08941092706362       -1.22896065715507
H            5.55693930225756       -0.68449487596297        1.57872598425007
H            5.33825816068908        1.04249119669185        1.97717219861852
H            6.63441907821303        0.54070826653181        0.84928283892633
H            3.09097884763724        0.88982965357022        1.14646085539016
H            1.53813311636937       -0.82323120660789        1.69939188357830
H            2.35128387001590       -3.10066012826075        2.03772337788389
H            0.78190591441453       -3.22224595032681        1.18505001940761
H            3.28114777445000       -3.32473617243740       -0.10260076250761
H            1.24898404060353       -1.66494647256244       -1.23452153396853
H           -0.57288876786499       -1.33582576149806        1.87082569108409
H           -2.29450633357489        3.02768697344438       -0.55670863536403
H           -0.67836692830027        2.83578732766954        0.30298790720598
H           -4.90064817585467        4.22441389624465        0.48902859392375
H           -6.16534530261604        3.42482328806357        0.09350537357897
H           -3.95453598916621        0.65884331753177        0.92112173885217
H           -4.36611068893454        2.04046384659058       -0.75139282227256
H           -2.56502054122349       -1.02638712736350       -1.21344751626969
H           -4.92337895308859       -1.01204692224414       -1.14724560321701
H           -3.02431727517882       -1.33216485070912        1.79452780745177
H           -3.16251189874938       -3.29328017031475        0.33105894253293
H            0.82253932917924        1.09686574019626        0.00449284266860
H            0.73375686433110        1.54604019520648       -2.31737753786266
H            3.06581802662197        0.11986123535876       -1.82260699314019
H            3.76375216456957        2.29741284155021       -1.35157847450441
