48
 energy: -84.854454185729 gnorm: 0.000346639312 xtb: 6.7.1 (edcfbbe)
C            5.48728793474517        0.26142557501174        1.24025731970547
O            4.66328716418571        0.45113546924967        0.09240437201797
C            3.30457250112654        0.35799461716455        0.33536514546685
O            2.98873826798050       -0.96540450233571        0.71164064063615
C            1.60995835145667       -1.14203475161760        0.97031844574787
C            1.39710069238668       -2.55506848127649        1.52826192744778
O            0.96746444460200       -2.44404332069543        2.86676028937688
C            0.82172924746974       -0.89405040240339       -0.32784592990195
O           -0.54648514962914       -1.25420997038377       -0.24718894269766
C           -1.33731892582719       -0.80427503272134        0.82557277155173
O           -1.45180995239413        0.58153874314137        0.94360562111172
C           -2.15194860416321        1.24840082571735       -0.11747036725475
C           -2.35311429996406        2.69876677973896        0.34435613038328
O           -1.14423793089908        3.37357771695806        0.57381251757268
C           -3.50905717898269        0.60431073542068       -0.43552194770106
O           -4.10526146187592        1.18241560350604       -1.56801205966348
C           -3.36317532247590       -0.91518407341433       -0.60491409856319
O           -4.61562511856098       -1.53687125935673       -0.76969290043205
C           -2.70737602011816       -1.47849089416351        0.65634521532298
O           -2.52490415282078       -2.86397922858210        0.60873842168095
C            1.07226555530693        0.54160722885901       -0.83072081543098
O            0.39190853137388        0.79105925643590       -2.03052308698531
C            2.58669079746042        0.75945160473285       -0.96696665484430
O            2.81603078313922        2.10744238562436       -1.26855295615208
H            5.34069161715755       -0.73686308162479        1.65379982576198
H            5.25626935752248        1.01325339250938        1.99986055769238
H            6.50658672280916        0.38094240028482        0.88546014595646
H            2.99782228465737        1.04811166401762        1.15050719297137
H            1.29347052923870       -0.41727318553459        1.73696216281533
H            2.35401430548938       -3.08426908007551        1.46191355673233
H            0.64231052008066       -3.07491750216424        0.92605161960873
H            0.85866388214941       -3.33059002796975        3.24030255255941
H            1.20648768140170       -1.59063273414484       -1.08534763454822
H           -0.89925194002850       -1.12075340855171        1.78325475593503
H           -1.52887778588167        1.23253504234590       -1.02227718777937
H           -2.87285040257801        3.25143504149261       -0.43924967507612
H           -2.96897394148224        2.69271384971628        1.25209240154456
H           -0.69431901768156        2.94192109644990        1.31231661156687
H           -4.20906386764034        0.79091980256062        0.38799572662350
H           -3.48560587908373        1.15673196082912       -2.31300867321246
H           -2.71142987603107       -1.13659790826072       -1.46420495419890
H           -5.14497101941608       -1.00516142194455       -1.38409392972538
H           -3.32715900456241       -1.20474627591774        1.52576778395104
H           -3.34847887223828       -3.26071054057088        0.28120718332046
H            0.68170711105314        1.27373364574695       -0.11732471781545
H            0.79359108316331        0.28424368988400       -2.75261854518108
H            2.97914886694213        0.10646305289256       -1.76277700907774
H            3.76937049714478        2.25592191328556       -1.36492183537211
