48
 energy: -84.604667025094 gnorm: 0.000500384117 xtb: 6.7.1 (edcfbbe)
C            5.51646943958724        0.65289649116211        1.16559594785778
O            4.67280365474556        0.76228499678145        0.02318688035542
C            3.32341482181697        0.62589954542921        0.29241238125971
O            3.07023479977620       -0.71107483933490        0.64853096607926
C            1.70288212725433       -1.00962097610952        0.93961787451199
C            1.49664953007784       -2.38391089054392        1.38086038398496
O           -0.89897593134538       -3.63317590288381        2.40867695435806
C            0.87409150720331       -0.79690112019509       -0.37950617509746
O           -0.46669224295889       -1.20688043238998       -0.32676861799490
C           -1.28948717638245       -0.78876555261794        0.74335070188078
O           -1.45340334347018        0.58363152704969        0.86908188281760
C           -2.21874843334121        1.26945709304776       -0.19772231776853
C           -2.27750903404362        2.72293035583225        0.11664387883112
O           -2.73648238526760        2.94502496122804        1.52320334864130
C           -3.59261215184918        0.59691369847771       -0.33970816219033
O           -4.27882978412408        1.21724840680746       -1.39361480099663
C           -3.40476030797758       -0.90294728955243       -0.59309151833364
O           -4.68236936722053       -1.48161545080217       -0.72931384372282
C           -2.63712724825894       -1.52078423731821        0.57758815846227
O           -2.49085538191889       -2.88861633630110        0.33801629506642
C            1.06033746080167        0.65829871975459       -0.84406609390213
O            0.40150464253364        0.89890623630847       -2.06033533875479
C            2.55080853905665        1.01839792926159       -0.97156155104164
O            2.71167923948034        2.39713086459837       -1.15695857982089
H            5.40806202166688       -0.33005864316941        1.62875523839274
H            5.27303804562902        1.43387820481369        1.89156126800746
H            6.52652291187904        0.78637809759677        0.79019582536563
H            3.01553180651474        1.29511173826368        1.12461722538171
H            1.32645562612996       -0.28628905828160        1.68268308379597
H            2.39668632734641       -2.97016563360606        1.13951919941608
H           -0.02674449247062       -3.27838259096427        2.10825090062238
H           -0.74929559229068       -4.55177936863782        2.65633998593204
H            1.31527317741596       -1.46123046345875       -1.13600094060391
H           -0.82605976995058       -1.10386041894949        1.69134041112574
H           -1.69660041936605        1.15368867880150       -1.15282031316535
H           -1.29695555615675        3.19122786722769        0.05426079765863
H           -2.40172338723609        2.22232217146416        2.10002771702794
H           -3.71712277061354        2.96489156869024        1.52165294205164
H           -4.17444123897804        0.69182968039402        0.59313227241910
H           -5.04396804362252        0.66530738826813       -1.61624901896820
H           -2.81699572681195       -1.05494617874643       -1.51068497115457
H           -4.57574462652934       -2.44374472721097       -0.71977085492077
H           -3.21425360380361       -1.35512385699615        1.50360013822602
H           -1.94876982511153       -3.27871892623422        1.06615548156651
H            0.59885709762229        1.33912831260833       -0.12109196756298
H            0.69649241071600        0.26630619561264       -2.73268995807264
H            2.99914448394594        0.45602882043544       -1.80647377275194
H            2.16392818571575        2.67827820666688       -1.90867056670121
