48
 energy: -84.745191456253 gnorm: 0.000734671930 xtb: 6.7.1 (edcfbbe)
C            5.32270648872548        0.71520351308116        1.31320056565118
O            4.53218612483748        0.82749938493139        0.13132916295151
C            3.18233338493266        0.57544799814636        0.32113666964138
O            3.00237734543143       -0.75408203229618        0.72406458343682
C            1.64988966623582       -1.09016033247163        0.99933654740128
C            1.74646317310056       -2.52389574169012        1.52089598991406
O            0.31501410299905       -3.01006484098911        1.86759088355606
C            0.80347196981382       -0.89725014518854       -0.29345310613663
O           -0.56522880325604       -1.25261486262075       -0.11640617252694
C           -1.31521932018524       -0.74020800636941        0.95833392885344
O           -1.44702619663640        0.65115904743500        0.98293872004245
C           -2.20029316309518        1.18777017392682       -0.10803804387650
C           -2.28887251445671        2.70474367838314        0.10607102410991
O           -2.65956949973255        3.39553511903400       -1.05379282200324
C           -3.59471336748236        0.54723135127231       -0.18185887902555
O           -4.28257333046136        1.08954662419005       -1.28068497157386
C           -3.45403639903657       -0.97615442589925       -0.29942752317152
O           -4.70461079979242       -1.60900281432439       -0.41578497811681
C           -2.66254316776477       -1.47879692771356        0.90830534082961
O           -2.39368087243919       -2.85328465911114        0.86347834926936
C            0.98524209151729        0.51983907554262       -0.85660070378426
O            0.31776200474789        0.61435437072581       -2.09339741169001
C            2.47614996002625        0.82150995833238       -1.01776474979244
O            2.60185491491824        2.15170147417293       -1.44674180338333
H            5.24148893370938       -0.29051497581075        1.72678562484214
H            4.99380101243907        1.44830963859076        2.05521126472596
H            6.34084116565726        0.92162559496393        0.99737908485171
H            2.76027259715108        1.25774591463834        1.09430886591413
H            1.26760449868782       -0.39919660835488        1.77096327045139
H            2.04384507807660       -3.13167766370652        0.64040006202212
H           -0.30821983362240       -3.11500247636568        1.10858263269932
H            0.45211741812803       -3.87303988819285        2.30889850062616
H            1.14753663107801       -1.60423834940074       -1.05767196791931
H           -0.82352825286783       -0.96010230972801        1.91727954460142
H           -1.68359126508909        0.98817410922991       -1.05705887685600
H           -1.30251360055442        3.07674816869518        0.39291348051814
H           -2.98840230906573        2.91051927968348        0.92819132052488
H           -3.45575649686675        2.97535402769528       -1.42001756783051
H           -4.13998575995110        0.78400559008877        0.75005504842457
H           -4.95255460474240        0.45244218255537       -1.57734710016593
H           -2.90485879887990       -1.22179818051477       -1.21464802262009
H           -5.24024480607721       -1.43582061533929        0.37438220378410
H           -3.21358871499414       -1.23188890564842        1.83105117116936
H           -3.14402135751480       -3.30803459150459        0.44739541323838
H            0.57315928030531        1.25477732262859       -0.14716352873014
H            0.61657618431603        1.42587550370408       -2.53292825188084
H            2.91395377334213        0.12871875943260       -1.75285683977356
H            3.54235943900920        2.38104644039283       -1.48319195803307
