48
 energy: -84.852679341526 gnorm: 0.000624045610 xtb: 6.7.1 (edcfbbe)
C            5.45970941095256        0.44834427833620        1.32085535398239
O            4.66040975551206        0.56799613800376        0.14635142371826
C            3.30232908403781        0.46979526619138        0.37178518533473
O            3.01000849871561       -0.85685431942201        0.75440576198426
C            1.64076967554692       -1.10301633513237        1.00196276058927
C            1.54182769885037       -2.54459592556817        1.52854862180332
O            2.14628330920161       -2.71842625477005        2.78006480851887
C            0.84905681155767       -0.91113121759401       -0.30651376043741
O           -0.52610844878136       -1.26211105336505       -0.22871679722842
C           -1.32782434863612       -0.75595632993027        0.82049020752245
O           -1.42454902519961        0.63086983750351        0.87091211321912
C           -2.16477858419651        1.25618898916693       -0.17991299396922
C           -2.26420618518305        2.74218008191517        0.16567967732144
O           -3.04073719609445        2.90135585528496        1.32997180533339
C           -3.55934452574954        0.64635737015963       -0.35249864854860
O           -4.14616044245247        1.24596537686139       -1.47920043381015
C           -3.44016094985011       -0.87048896320557       -0.52837240773485
O           -4.73901646837260       -1.40245679060766       -0.63876264056603
C           -2.69291739094058       -1.45568481261162        0.67378825313873
O           -2.54975076157576       -2.84557096409081        0.57216551648958
C            1.07373636638016        0.52090905503196       -0.82188726885786
O            0.43785297030516        0.75162801426293       -2.05365933538885
C            2.57669012952052        0.83935129318970       -0.92795873853256
O            2.77378146203819        2.20869246766438       -1.15297396160610
H            5.30057787637028       -0.52287723820252        1.79279720437079
H            5.21752565394745        1.24920534803188        2.02526337631763
H            6.48631851448036        0.54305047101687        0.98041968054177
H            2.97855310231941        1.16706084301606        1.17391025508206
H            1.27859904418450       -0.38506734501857        1.75642223893439
H            2.09294715177531       -3.19333675751008        0.84539529142160
H            0.48913366547075       -2.85030188199012        1.55011323002653
H            1.68221179405672       -2.20118123228641        3.45356856357197
H            1.24390350958257       -1.61831015066014       -1.04678091672187
H           -0.89165239060771       -1.02573559529237        1.79235690695550
H           -1.62832684848878        1.15162253875154       -1.13247094042359
H           -1.25018375202645        3.12908849932682        0.32135824221540
H           -2.72774192983491        3.24445220910972       -0.69067542083887
H           -3.11285456639317        3.84473395723164        1.53267869878435
H           -4.15440643016525        0.85190805613952        0.54991464393364
H           -4.98788398829854        0.79610266100777       -1.65071958065257
H           -2.86682381053896       -1.07704998116860       -1.44659934114863
H           -4.69712060687946       -2.36011593952978       -0.49136492572175
H           -3.27976071332474       -1.27094827326994        1.57955938017737
H           -1.92650047136754       -3.04001499057955       -0.14564151195857
H            0.62482177367690        1.23336383377615       -0.12136629698916
H            0.73647198946703        0.09948638831067       -2.70648201591674
H            3.03459041143231        0.24230446564541       -1.73185504018495
H            2.24669917600741        2.47660704902115       -1.92372922316100
