48
 energy: -84.744347412385 gnorm: 0.000363673165 xtb: 6.7.1 (edcfbbe)
C            5.50599827535417        0.35748499992428        1.23590286888280
O            4.67989916496983        0.47536352030311        0.08228135520740
C            3.31954056209167        0.45320887367926        0.35036927818333
O            2.95462716949246       -0.79122360898583        0.87417816390853
C            1.53334479490633       -0.86158458414651        1.19269407176291
C            1.14496253187474       -2.04496949858506        2.03899715057203
O            0.80158404115632       -3.25384492766190        1.05247519262463
C            0.78382559828016       -0.77682538786377       -0.15020350658618
O           -0.57491130444816       -1.16909834051853       -0.05951884238438
C           -1.37712549196389       -0.60412922723729        0.95466526180275
O           -1.50990139343334        0.78154112234946        0.89545702627372
C           -2.22393540773056        1.28822674682427       -0.23636467343411
C           -2.34485473840852        2.80392827077982        0.02569173768052
O           -3.46857968933458        3.42026176654424       -0.53794474284479
C           -3.59469561750296        0.61834338093648       -0.41608366555577
O           -4.10519574093953        1.02959168118213       -1.66210066783094
C           -3.45466105171857       -0.91023868019668       -0.38422272461946
O           -4.70727452065976       -1.54232123794522       -0.50754150169107
C           -2.72115391837122       -1.34190954229971        0.88576264627076
O           -2.45155176085293       -2.71624595813851        0.91472477478680
C            1.05389419598340        0.59636992848566       -0.77349754037888
O            0.40262625786636        0.71378527301070       -2.01611296186581
C            2.57527141384901        0.74394940229622       -0.96336080729557
O            2.88343653025749        1.99907820917301       -1.50752542643127
H            5.31431770092052       -0.58735317887009        1.74722923765080
H            5.31967210847072        1.18958328230207        1.92178075635933
H            6.52560554223363        0.39169817680593        0.86465625830890
H            3.06004065219176        1.24220854943735        1.09948034082214
H            1.31855791123522        0.04522575158383        1.78802762175916
H            2.07273158388807       -2.40502839858732        2.51508460992993
H           -0.05352169373920       -2.97592421912174        0.64567850381028
H            0.59904582898133       -3.99526200043173        1.65898286651109
H            1.21472269989099       -1.52500782295663       -0.82759033704932
H           -0.90106327215469       -0.79851514639775        1.93081831770082
H           -1.65318811279519        1.09321891285045       -1.15435030388942
H           -1.42405607444390        3.29542539660795       -0.31550365343127
H           -2.42803307392130        2.94493694394883        1.10711804559934
H           -3.57672740142864        3.11893729152021       -1.45341708381633
H           -4.26490435191873        0.94560548203973        0.39664533073450
H           -4.84831698420621        0.45251478068748       -1.89917418250768
H           -2.87057636295863       -1.23018918685484       -1.25414741107421
H           -5.27387505670323       -1.29791463890986        0.24060693042834
H           -3.31200365760197       -1.04548801525568        1.76821967161097
H           -3.22198090296499       -3.19384375723314        0.56673300348575
H            0.69493271381286        1.38650831011599       -0.09174615247645
H            0.90807645551439        1.33518634958781       -2.56567309670468
H            2.91765687976826        0.01066504296756       -1.70222190674752
H            2.82073297031623        2.68862590851756       -0.83037483402924
