48
 energy: -84.645619523056 gnorm: 0.000810629073 xtb: 6.7.1 (edcfbbe)
C            5.60961924633934        0.44567548114780        1.14779873209356
O            4.74295193527623        0.44190270947378        0.01861210492327
C            3.39359841536359        0.48324684209193        0.33628578115047
O            3.02697192934444       -0.72411027404150        0.94071518700373
C            1.60712797141110       -0.77929608242864        1.25616136124289
C            1.21980777371712       -1.89205345561229        2.19606925129227
O            0.90000718759036       -3.18743648921486        1.31149373329697
C            0.88299045059317       -0.81625691954880       -0.10121916751909
O           -0.46412647549927       -1.24561551324322       -0.02287056785303
C           -1.32204017033064       -0.64216099174971        0.93146309420432
O           -1.50242526282452        0.71872667152432        0.78657900780969
C           -2.26635710088363        1.13435190422733       -0.40488958551934
C           -2.49734576320231        2.61160278144034       -0.44326348383991
O           -3.16582038088874        2.96456905073790        0.91828804843504
C           -3.60375660492726        0.38600059090070       -0.45347595175109
O           -4.30085517984552        0.71770705498760       -1.63012171023400
C           -3.37030236239533       -1.12391513048047       -0.42281909003936
O           -4.57828998057113       -1.85075495042125       -0.42853671137608
C           -2.62063264374674       -1.46093857916577        0.86533074638624
O           -2.26085710154801       -2.81223652633782        0.95782409932158
C            1.11395628822835        0.50850466141228       -0.83012849471627
O            0.50146877196378        0.55661386564638       -2.09676409255033
C            2.62977304324361        0.74946142148247       -0.97140133024888
O            2.89235957866828        2.07616229327806       -1.34510848571135
H            5.41342394392782       -0.42146441668311        1.78163678485291
H            5.47146024744630        1.36409558008997        1.72607662148962
H            6.61477473423008        0.40140837453709        0.73941577607850
H            3.18249765516517        1.32293101196385        1.03733073795811
H            1.37820362132620        0.17270706526669        1.76968420598332
H            2.14773629872057       -2.20188119656909        2.70634607987099
H            0.03494204582769       -2.97099662398879        0.88687445665326
H            0.72279185432913       -3.88312585124856        1.97712207837239
H            1.36397655520170       -1.60682044825995       -0.69594195867634
H           -0.86528238138486       -0.76875376923628        1.92958152455540
H           -1.69025757635131        0.86398443977865       -1.29972990046311
H           -1.50941739798449        3.10741866826354       -0.40438761900572
H           -2.56964175507823        2.77044438497492        1.67036972765260
H           -3.37265245186874        3.91984519467095        0.87446359098079
H           -4.21326118875827        0.65782794236118        0.42528174045410
H           -4.14039656189244        1.66644201445828       -1.78958117636916
H           -2.75093806011825       -1.40939181709446       -1.28682820904190
H           -5.13062491062605       -1.50267573691820       -1.14424650241299
H           -3.25684707703692       -1.17540796089794        1.71728643928496
H           -3.04854367635328       -3.34552386917855        0.76709470226321
H            0.67422759219145        1.33404100100790       -0.26029557685612
H            0.75949172194268       -0.22253567071395       -2.61261415372689
H            3.03814263830981        0.05108300767714       -1.72003274988271
H            2.36745356496201        2.28291422125076       -2.13593411666553
