48
 energy: -84.826064035552 gnorm: 0.000482603390 xtb: 6.7.1 (edcfbbe)
C            5.63424040776512        0.45480205706826        1.11243637341924
O            4.85020516180653        0.24820543213547       -0.05959081733982
C            3.48662929569055        0.29282835548960        0.14788629641899
O            3.10497593169642       -0.89077999453120        0.81944929770528
C            1.71716222801400       -1.00421001225931        1.07710462316561
C            1.54072489424625       -2.33197207820706        1.83535147999703
O            2.01457878412833       -3.42124708940494        1.09319391954822
C            0.93165186023906       -1.00543431829519       -0.24688289371876
O           -0.46662684057117       -1.20451771791884       -0.09559914233643
C           -1.20898997182184       -0.43739370656317        0.82316750454286
O           -1.17776680012823        0.93955192388605        0.57795851541552
C           -1.95659074612601        1.44819710612331       -0.45626818225558
C           -1.51173203611025        2.48394890724079       -1.14984988607017
O           -4.52184907020727        1.36277389735453        2.52940252486155
C           -3.34019366234197        0.85118103302903       -0.63048000165094
O           -3.93935103548867        1.21956773314497       -1.84648371831929
C           -3.26220692322671       -0.68577386093972       -0.56350821179535
O           -4.50353485959446       -1.30237540520405       -0.75091772584639
C           -2.62882429548162       -1.03625581675902        0.79313295674047
O           -2.59948255842369       -2.40669319316191        1.06429789208066
C            1.27002814075792        0.25898281318327       -1.04946119580113
O            0.63360540417394        0.29692157805433       -2.29975493092854
C            2.79437845948756        0.39970438512399       -1.21525786576004
O            3.11646338685099        1.64957809104729       -1.76273679715274
H            5.41967002119023       -0.31159638696847        1.85906607518362
H            5.43573263687377        1.44588761360822        1.52984758536715
H            6.66660375612498        0.38502143620581        0.78331563382654
H            3.20260542613286        1.17232832343140        0.76238426771216
H            1.39332602676630       -0.15775292589212        1.70093107986581
H            2.06541799355585       -2.25653423997918        2.79537275780009
H            0.48058193605717       -2.51856525981635        2.01394922285065
H            2.95350957941645       -3.27525954004627        0.90423227739717
H            1.24145115476627       -1.89010423331062       -0.81803858081330
H           -0.79091585442502       -0.54044506889343        1.83524312815310
H           -2.10927059401939        2.92471145895367       -1.92253661494237
H           -0.53981602782633        2.90252962154669       -0.97107328237554
H           -4.04642987866929        2.03395546394559        3.02969243910275
H           -5.37133773836889        1.25172820621583        2.97149951743593
H           -3.95794909976305        1.17809001695580        0.22284309510428
H           -4.28188455345278        2.12118701915374       -1.77908916665116
H           -2.63227747692383       -1.05166751813699       -1.38017230304103
H           -5.12094420907641       -1.00970916670798       -0.06501040880761
H           -3.21808352649567       -0.58163744244497        1.59803043368725
H           -2.13911673805481       -2.86112151638848        0.34301455992205
H            0.90587659344720        1.13931950392513       -0.50983444635842
H            0.79756281684307       -0.52927006497257       -2.77898765463087
H            3.18586768331216       -0.41273698195481       -1.84686416434751
H            2.58665531449244        1.77557528605074       -2.56730061674211
