48
 energy: -84.849765649272 gnorm: 0.000365358033 xtb: 6.7.1 (edcfbbe)
C            5.52216886439821        0.47768082292900        1.16111660297595
O            4.67554964957538        0.56129769903384        0.01811900129648
C            3.32672190229677        0.46932225190365        0.29658658125802
O            3.04346129876466       -0.84945886287636        0.71744676976402
C            1.67571409115119       -1.08362536865838        0.99271897446974
C            1.56027828676353       -2.51536512705561        1.57332938089461
O            1.25961481124672       -3.50315280322992        0.62789654728611
C            0.86632794257466       -0.91443484673687       -0.30618559138560
O           -0.49605734428565       -1.30660530640530       -0.19368469911630
C           -1.28326183630316       -0.82222034926024        0.86142731225040
O           -1.42849861328427        0.56699629728369        0.90017339716400
C           -2.18276404839471        1.13761821375578       -0.17505738898444
C           -2.30731722345225        2.62530207043708        0.17284644825376
O           -2.94609644160265        3.29730469213493       -0.88541693774002
C           -3.56147683813944        0.47471376885008       -0.34738258979121
O           -4.22075982085895        0.93485401881460       -1.49665891607202
C           -3.38690472780536       -1.04408362238527       -0.46739318527177
O           -4.59457196235623       -1.74459684278927       -0.62146062512861
C           -2.63576123479997       -1.54215592205535        0.77443557452012
O           -2.41147044049594       -2.92286129820355        0.74954006508773
C            1.05962622845112        0.51399385627848       -0.83353954476880
O            0.39316520420080        0.73588940814677       -2.05066804290217
C            2.55916210835469        0.83189345248076       -0.98104044579010
O            2.74962433567834        2.20126972702097       -1.21472440412379
H            5.39882815824506       -0.48590929176941        1.65806510473342
H            5.29573452374873        1.28858340587814        1.85913580054287
H            6.53267541042372        0.58097670838511        0.77746204624011
H            3.03574111977201        1.17902389688279        1.10089051184383
H            1.33857394454635       -0.34600558105979        1.73797474899631
H            2.53944239222674       -2.77518373756804        1.98196491492879
H            0.82099919733923       -2.52047554692581        2.38204591049016
H            0.33143122702012       -3.42162092762936        0.35744280726665
H            1.27166048698885       -1.62105944581183       -1.04128130605212
H           -0.81807031816515       -1.06238892935353        1.82927314161852
H           -1.63856002526126        1.02843709374289       -1.12276109928797
H           -1.29802725661626        3.01531138989406        0.34365342604174
H           -2.88063082664935        2.71790455296962        1.10453364759060
H           -2.94424317864917        4.25013379610478       -0.71561630605601
H           -4.17117209045344        0.68809613710980        0.55097814031446
H           -4.07065519760592        1.89341665964641       -1.58089867192087
H           -2.79085820256761       -1.27041823272731       -1.35783574870332
H           -5.30314526979093       -1.30398170027231       -0.13146296647444
H           -3.21191179436112       -1.27141562024315        1.67598418329890
H           -3.16764106616827       -3.34035168077208        0.30306507453893
H            0.62811870440783        1.22953506570597       -0.12484695188689
H            0.65581709090836        0.06401399186049       -2.69815800881739
H            2.99254840564751        0.23248408210134       -1.79622584517422
H            2.21084337434104        2.46295100276638       -1.97969983555817
