48
 energy: -84.854718236883 gnorm: 0.000692481306 xtb: 6.7.1 (edcfbbe)
C            5.46408510234563        0.58713008279711        1.29161520251062
O            4.66251871566246        0.62784853843381        0.11434020615540
C            3.30910384529196        0.42819590183169        0.31923342387651
O            3.08437230019272       -0.90874637248125        0.71387178375189
C            1.71668201782289       -1.19801984411941        0.94863481327668
C            1.63890471662819       -2.66036163979328        1.41482289753627
O            1.99890859383444       -2.82040309971324        2.75985138313902
C            0.89877480808678       -0.97206427753143       -0.33443321971302
O           -0.47110037657135       -1.33139813796611       -0.21843206530215
C           -1.23542859887046       -0.86148502588437        0.86994962640701
O           -1.33851330331768        0.52325045230851        0.98075801017563
C           -2.05150623527126        1.18414923612621       -0.06595012914030
C           -2.07127584620545        2.67153967224211        0.27694696215789
O           -0.76046153755118        3.17848507219757        0.18905049098838
C           -3.46840999667452        0.61660282955578       -0.19372247860371
O           -4.13458628820431        1.26601632796407       -1.24395629545917
C           -3.36671052397149       -0.89723726071970       -0.44827676340869
O           -4.63574931870538       -1.45679963243565       -0.67507003129280
C           -2.61857800078808       -1.54346390437356        0.72410578580361
O           -2.49884963632088       -2.93045629337273        0.60296653788299
C            1.10264352532533        0.45877795933108       -0.87649138359929
O            0.41761765274713        0.63595023434816       -2.08695325201465
C            2.60549793183899        0.73190052012343       -1.01401333745537
O            2.79050289504471        2.06803522454450       -1.38630085554225
H            5.44924300729726       -0.41055660924577        1.73041426009135
H            5.10512390345756        1.31893292108968        2.02028125503236
H            6.46845067881089        0.83972508911680        0.96453327874247
H            2.91807160767990        1.11002091007181        1.10378548291678
H            1.34338691054573       -0.52875516811485        1.74000066687285
H            2.27949631493262       -3.25913078591348        0.75780897190964
H            0.60952225624494       -3.01278368327463        1.33253429929982
H            2.93691817958274       -2.60879291101018        2.86508308429423
H            1.26496747932859       -1.67494822946679       -1.09534267605834
H           -0.78269634621926       -1.17503177693820        1.82148412359406
H           -1.53049027222748        1.05333341832503       -1.02258680307662
H           -2.74079196960173        3.16095297633454       -0.43780750229105
H           -2.46029514354266        2.78808945217706        1.29696016932626
H           -0.78625190875290        4.14265299108889        0.27437241237354
H           -4.00867658087138        0.78960755233644        0.75366990715441
H           -4.82840785273708        0.66976357796598       -1.57358871630679
H           -2.80144783494393       -1.05804768811340       -1.37367941336068
H           -5.08724014683111       -1.61368521545674        0.16701388962217
H           -3.17632871011482       -1.37220401096749        1.65221518184852
H           -2.01538644154955       -3.13498446790366       -0.21156903113893
H            0.67845912087637        1.19904972466984       -0.19051977076085
H            0.85407826553645        0.13570962721307       -2.79353107328249
H            3.03675034594942        0.05287285977777       -1.76822579043139
H            3.74159970307579        2.25368988794063       -1.42836549282832
