48
 energy: -84.848821181663 gnorm: 0.000521350231 xtb: 6.7.1 (edcfbbe)
C            5.41502402199295        0.43354430715509        1.37028348868133
O            4.64119854792578        0.57288130449027        0.18107318655844
C            3.28078247256140        0.42668918136023        0.36049911366521
O            3.00184218377492       -0.90990335264288        0.73212994074819
C            1.62838841591213       -1.15586935474919        0.96531488385921
C            1.50013228459582       -2.59036978858579        1.49606985215276
O            0.78630904356025       -2.56988294572523        2.71267199964242
C            0.82800942304639       -0.92137299057101       -0.32987410836425
O           -0.53517186624498       -1.30320787574557       -0.24195701026365
C           -1.32049750024228       -0.86129056524115        0.83899214340361
O           -1.43785450763415        0.52597937009653        0.95037513362065
C           -2.08285653370468        1.16593060297962       -0.15236168793264
C           -2.14591911562453        2.65686446060344        0.17289216408852
O           -0.86778285881832        3.22873429848425        0.01165982342507
C           -3.48564165093305        0.59333181380219       -0.38999218929764
O           -4.09946633827402        1.17226850426988       -1.51350728488890
C           -3.42605495716072       -0.93731623560618       -0.52838372558220
O           -4.72519637039131       -1.47342914911230       -0.58546081820070
C           -2.70587114931048       -1.53595781479491        0.68178826167016
O           -2.59189081136741       -2.91806308209005        0.50204711984808
C            1.06426860534372        0.51604723980198       -0.81883591129109
O            0.43065907788073        0.69428108773269       -2.06434051112158
C            2.57541015491064        0.76281734516310       -0.96159148891735
O            2.82134672923648        2.06624255971682       -1.40769480626496
H            5.30129715968191       -0.56905757711831        1.78456594049875
H            5.10890968132717        1.17717741661140        2.11169841876773
H            6.44269622447785        0.60467701073737        1.06468332239906
H            2.91040238478148        1.10036767544892        1.16655174473073
H            1.26833381297649       -0.46170109542691        1.74238521688040
H            2.51677497600588       -2.96933166354153        1.63710478406468
H            0.97667747279078       -3.20925925372756        0.75752372211993
H            0.92236731760262       -3.40966624579321        3.17507008350530
H            1.21398773803301       -1.59611962462524       -1.10458104646442
H           -0.87272923483292       -1.17385223153674        1.79374243083444
H           -1.48698272268457        1.01464407138953       -1.06250769306459
H           -2.87048755227008        3.12142982795155       -0.50555167694590
H           -2.48898751131351        2.76192277537749        1.20927807047512
H           -0.92999696632315        4.17700809210977        0.19651543678219
H           -4.13482237347801        0.83863917387201        0.45883622351479
H           -3.54108920753414        1.03295515656307       -2.29397434101887
H           -2.85440735903597       -1.21453062868357       -1.42765070098787
H           -5.23813803791561       -0.96086985133291       -1.23078804395612
H           -3.29881193951479       -1.29808991933583        1.57641616094670
H           -2.36855571606018       -3.33923315185979        1.34371981397865
H            0.65607186720621        1.23443318686653       -0.08914847727706
H            0.87203788384495        1.43064228504289       -2.51998139317367
H            2.98751963623528        0.10387441727821       -1.73318684394164
H            2.56563916627733        2.70780120698062       -0.72780974655686
