48
 energy: -84.849527471794 gnorm: 0.000459140935 xtb: 6.7.1 (edcfbbe)
C            5.49935187302797        0.43258963847667        1.27704103012308
O            4.67844580793892        0.59208921538688        0.12233267297903
C            3.32263374174512        0.44787850071291        0.35710894555109
O            3.05003576949815       -0.88827288674667        0.72045411521634
C            1.67854297698756       -1.11024026624765        0.98258266878416
C            1.52045942057893       -2.53813408858263        1.51868409745985
O            1.31724810793085       -2.47366035070793        2.91189465030192
C            0.86594491865900       -0.87647262914872       -0.30583518597063
O           -0.49586192239096       -1.25913781387292       -0.19226600021952
C           -1.25509132845308       -0.80356798659682        0.90014188075706
O           -1.37341447963658        0.58362655306169        0.98987249355702
C           -2.10562536543762        1.19689811326002       -0.07960224053148
C           -2.10972148187380        2.70352060856531        0.21035183796039
O           -0.83974419965075        3.29038330386207        0.08923431329947
C           -3.52967525567744        0.61157793474881       -0.19577134152487
O           -4.21094904727750        1.11503370880123       -1.31670740493244
C           -3.41596896460859       -0.91058815980806       -0.36729854573060
O           -4.65518269776955       -1.55762686601116       -0.49472449035918
C           -2.63091171387530       -1.48224769699036        0.81987271954023
O           -2.46725479449457       -2.86932003789474        0.73242236338501
C            1.08437822974801        0.57403761639567       -0.78262441287371
O            0.38232304366639        0.85720894501997       -1.96288948136000
C            2.59181744638463        0.82067878202639       -0.94380160646951
O            2.78842033243408        2.16878996669569       -1.26660839127790
H            5.37953944982921       -0.56790303947656        1.69400208751052
H            5.23846872672973        1.17995090725710        2.03143391657544
H            6.51729417194862        0.58193014821395        0.92983346756362
H            2.98530530628709        1.12180252181230        1.17367036992306
H            1.34485354103295       -0.40317281773585        1.75796967149421
H            2.43887834277260       -3.08472060603411        1.27683219407879
H            0.66425493912670       -3.01569314677467        1.02616707281217
H            1.24762190411485       -3.37266501751032        3.26460962664788
H            1.24566358691778       -1.56014612820320       -1.07617960364043
H           -0.77507107104513       -1.09560065972472        1.84592232380069
H           -1.59174555523108        1.01095420398715       -1.03251598024954
H           -2.81905260481079        3.19581052321704       -0.46475345066322
H           -2.41063846185034        2.86520056244708        1.24767738007704
H           -0.52264967142374        3.18398673329476       -0.81986735006329
H           -4.08207580501195        0.82330377214279        0.73248087073178
H           -4.56354224297589        1.99686857529786       -1.13578619387972
H           -2.87543791993882       -1.12532926801839       -1.29457916202027
H           -5.27106955156489       -1.23993744781629        0.18236597413068
H           -3.16406267571301       -1.22991604534581        1.75367565664941
H           -3.22676091412236       -3.22907644000688        0.24316225546951
H            0.70049963974665        1.27582625309795       -0.03444274376882
H            0.73791840206077        0.33484281393180       -2.69734742244651
H            2.99017521860680        0.16667109141831       -1.73639227174581
H            3.73993982270404        2.34427038242000       -1.32720938368841
