48
 energy: -84.846758541144 gnorm: 0.000238127084 xtb: 6.7.1 (edcfbbe)
C            5.37675696840982        0.55093617104915        1.30100094265964
O            4.60162552154896        0.62699527587478        0.10747630139550
C            3.24335489655319        0.46696208789580        0.29250898339205
O            2.99253988437607       -0.84487787174504        0.74972665101289
C            1.62820387918291       -1.13236218802593        0.97361189009443
C            1.55882466087913       -2.58522044652170        1.46157822413609
O            1.97052649059607       -3.43335101023590        0.41939562414869
C            0.80461665658675       -0.94913762810354       -0.31561942054981
O           -0.56959689178707       -1.28509240728197       -0.16587606795186
C           -1.32464723653227       -0.75895680248272        0.89210799973423
O           -1.42623385741322        0.63619602005222        0.91500821711384
C           -2.17208911699516        1.23381928050608       -0.15314234036323
C           -2.32801517160974        2.70799803144453        0.26561212051839
O           -3.30001178693138        3.41789134447484       -0.44651764590789
C           -3.53537314082163        0.57096403009290       -0.40886912618945
O           -3.99483677742085        1.04943515512106       -1.64776989692041
C           -3.40039426033122       -0.95912560841778       -0.44226289270217
O           -4.64184705661046       -1.59032850090762       -0.63526102712387
C           -2.71015388321169       -1.42527473306540        0.83679530790920
O           -2.57792379500248       -2.81620674187045        0.92684924284938
C            1.02970781510670        0.46899704504202       -0.87590253893925
O            0.32086615951278        0.69221047884708       -2.06486448152951
C            2.54038462545979        0.70855339055035       -1.05598488871223
O            2.81960782014130        1.96718675499130       -1.59451448795502
H            5.28434065256524       -0.43754016278679        1.75298358543406
H            5.05398684211271        1.31654697112014        2.01267072970982
H            6.40066854327562        0.73255961282991        0.98883156598202
H            2.85944885486431        1.18641397913477        1.05299946541430
H            1.24500007619244       -0.45545209891636        1.75418535434987
H            2.22366939670172       -2.68129843546310        2.32831809617002
H            0.52587690403889       -2.80663740847933        1.75673516525147
H            1.92088067218868       -4.35191679425326        0.72017786692974
H            1.16011308988336       -1.68683091150052       -1.04408031379462
H           -0.86051875300279       -1.00199735711438        1.85995546571227
H           -1.60821810563110        1.15807235980161       -1.09256497556488
H           -1.34773067247916        3.19594810135158        0.18496073322172
H           -2.63707182591394        2.73172495323343        1.31421064950038
H           -3.17388129703930        3.27655800657262       -1.39634403503008
H           -4.23613207973852        0.85744447894744        0.39376854828834
H           -4.75572842515308        0.51736142578795       -1.92822984413232
H           -2.78438745685937       -1.24408821318927       -1.30192645290903
H           -5.23062136774409       -1.40117054662676        0.11160097400826
H           -3.27576886359148       -1.06116712407607        1.71158906838718
H           -3.13076260789794       -3.22983243027684        0.24439510058126
H            0.63488403240049        1.20245919337844       -0.16178014684932
H            0.67949846888581        0.13886687883294       -2.77448941928463
H            2.95643539286130       -0.01117249856141       -1.76912787335847
H            2.48772114466387        2.66847389101940       -1.01522901359981
