48
 energy: -84.851872288387 gnorm: 0.000389408412 xtb: 6.7.1 (edcfbbe)
C            5.39391860213879        0.56217287455837        1.30121004441880
O            4.59623047336935        0.65387337677996        0.12389556128391
C            3.24151591168428        0.50014737009870        0.33794501104034
O            2.99827326987663       -0.83394547014216        0.72897000584608
C            1.63847713269611       -1.14022710856699        0.95352114504799
C            1.58241714573009       -2.60899169811058        1.39412442986646
O            2.00309324541072       -3.41988276218356        0.32618229022338
C            0.81181592827029       -0.92486715032060       -0.32834169377899
O           -0.55785749674283       -1.28841545875930       -0.19663580234099
C           -1.32305918825635       -0.81343288705648        0.87768101035492
O           -1.44046503169021        0.57764604503904        0.94199084725734
C           -2.18335597778979        1.17570844747345       -0.13311708467280
C           -2.24876314192048        2.67717338546859        0.17964909620635
O           -3.04911123677546        2.96596412599549        1.29711452027711
C           -3.58405887981789        0.55287083553974       -0.26442166742659
O           -4.25793990624235        1.01820538631182       -1.40863747071184
C           -3.45173422886466       -0.96818238216222       -0.41034425103486
O           -4.70753426686991       -1.59950561020393       -0.44959630931376
C           -2.69346112170037       -1.50389797000680        0.80219575234375
O           -2.49669122923355       -2.88741413250474        0.76925584368245
C            1.01416966575682        0.50934281515511       -0.83768770454353
O            0.35586345669937        0.74502947311652       -2.05753606553717
C            2.51250020133897        0.83457594069443       -0.96779002717547
O            2.69748073502838        2.19988735987819       -1.22760818915517
H            5.30134401723361       -0.42923018190242        1.74757758172923
H            5.09161786294469        1.32594874376654        2.02346586631465
H            6.41328526158234        0.73729352263096        0.97079907641920
H            2.88386079755011        1.18711892371902        1.13603465594619
H            1.25415250714248       -0.49109594479970        1.75635105913952
H            2.24804327111448       -2.72690391096171        2.25781840493105
H            0.55137671841677       -2.84904103084761        1.67986190679718
H            1.91887184629182       -4.34937021313289        0.58286170879888
H            1.18446365077588       -1.63265723631692       -1.07864224804010
H           -0.85466531219008       -1.08331273853227        1.83649625628951
H           -1.65302334178578        1.02782234987940       -1.08226575535293
H           -1.22643786878206        3.04419044048939        0.32568427216930
H           -2.69043338857359        3.20534202221395       -0.66625201690660
H           -2.63842339828152        2.57416419266684        2.08013831902731
H           -4.16517881471427        0.76886945230678        0.64369952207125
H           -4.56140725347014        1.92481084708705       -1.26454768482112
H           -2.87915662704269       -1.19141687499447       -1.32187765896498
H           -5.23477228821886       -1.17923435107358       -1.14568215409918
H           -3.25796903090742       -1.22555141945098        1.70836774623686
H           -3.32402806983815       -3.29813130597561        0.46926715413753
H            0.57939021350814        1.21797991259488       -0.12432112342992
H            0.60291837246710        0.06187322566884       -2.69950866121113
H            2.96860339745344        0.21954402459704       -1.75835363463065
H            2.15769641081356        2.44265166726969       -1.99821092441508
