48
 energy: -84.749086520512 gnorm: 0.000681602343 xtb: 6.7.1 (edcfbbe)
C            5.33178031322725        0.86638321738123        1.37835979374434
O            4.57904783451828        0.89509008774018        0.16774639996966
C            3.23352690635923        0.61656726676550        0.31748149712496
O            3.07132784836425       -0.70599324741607        0.77411406371824
C            1.72186561776201       -1.07382040467348        0.96177348648427
C            1.71721000904093       -2.52629267895466        1.45336062324314
O            2.25493138552274       -3.34691433338174        0.44794244412620
C            0.90343997790364       -0.94547537562271       -0.33786712528190
O           -0.45374806701374       -1.33192478547015       -0.17952348191691
C           -1.23144605430121       -0.81253077087666        0.87225374453022
O           -1.38033546512410        0.56495822447501        0.86202388578515
C           -2.14269166954357        1.09159231307125       -0.29716605090706
C           -2.27764518199629        2.57669764438376       -0.27148200195811
O           -2.94463189571396        2.93048478319385        1.09005148196012
C           -3.51705070086279        0.41794737244628       -0.35792412399811
O           -4.22154289177980        0.85319305111624       -1.49425603418559
C           -3.34598061944654       -1.10006811554802       -0.42557499061865
O           -4.58264671216727       -1.77582279118580       -0.44741134674643
C           -2.58636454028201       -1.54100200063698        0.82360834724877
O           -2.36015838585168       -2.92030088708866        0.88653293469854
C            1.07855150690018        0.45572920462260       -0.94506371557378
O            0.47425344086179        0.47713201957847       -2.21327249714927
C            2.56856250137755        0.79198919250800       -1.05256067086230
O            2.67100508405146        2.11220029501442       -1.51539064309440
H            5.31443141024048       -0.13346091371462        1.81297534656558
H            4.92557830135303        1.58881404378567        2.09192150598712
H            6.34295586420879        1.14069981778702        1.09333461724039
H            2.76486905239739        1.31169968304451        1.05083052581544
H            1.28385469436794       -0.41669818243309        1.73071903544516
H            2.32749828474343       -2.58019151793122        2.36380787310988
H            0.68203232015301       -2.81000278323106        1.67781857991532
H            2.17015232400779       -4.27316459039925        0.71660622108939
H            1.28458498526360       -1.67536048445376       -1.06068936561815
H           -0.76285887771696       -1.03840929807262        1.84514098943702
H           -1.60129820989249        0.81619442772607       -1.21106964212363
H           -1.26318469103527        3.00968539406464       -0.20435434868698
H           -2.35950041306921        2.72367045865605        1.84633453557413
H           -3.13429522587529        3.89008853181623        1.04880200585872
H           -4.09637379920565        0.65977530793771        0.54977093725971
H           -3.99011158736240        1.79167116197054       -1.62558801401775
H           -2.75130427505526       -1.35757869597413       -1.31509266110679
H           -5.13019076650541       -1.36294852602526       -1.13223704007747
H           -3.16587441463755       -1.21914474873973        1.70689199786288
H           -3.16327873336627       -3.36493818069188        0.57015168854691
H            0.60942592592648        1.20589113556929       -0.28969526912323
H            0.76874967506928        1.28033890116224       -2.67283024585675
H            3.04905557003625        0.08728260937475       -1.74642573473752
H            3.60783033988636        2.35150708232082       -1.58527957535998
