48
 energy: -84.855662357935 gnorm: 0.000919950694 xtb: 6.7.1 (edcfbbe)
C            5.45323425718730        0.42740901421060        1.18663445325844
O            4.63455712469000        0.43925682728418        0.02025253972867
C            3.27928730415475        0.36950236425267        0.27109956613910
O            2.97486598119808       -0.95431027177515        0.66192342961635
C            1.60397875902871       -1.19821205341048        0.91856433073806
C            1.52111317950502       -2.67376709694404        1.34937407823293
O            2.03018854527657       -3.52967627837337        0.36443134012653
C            0.77531851598297       -0.93583747152713       -0.35148751326638
O           -0.60491163827763       -1.25125240380600       -0.22313488522934
C           -1.36075547814125       -0.77418360764765        0.86433510453899
O           -1.43877468190474        0.61397361121771        0.98467051429242
C           -2.16275422074236        1.29587543380718       -0.04772465843255
C           -2.25930055202872        2.76828324823281        0.37209589253917
O           -1.00516357417028        3.36824767612842        0.56147595176915
C           -3.56339417399747        0.70788971842482       -0.24341330543564
O           -4.17017678157220        1.35979945436542       -1.32736150098453
C           -3.45791889467895       -0.80733568078539       -0.48834456066880
O           -4.72148556557775       -1.36353460515084       -0.74905272600269
C           -2.74947607997477       -1.43785299218252        0.71581828306733
O           -2.64661209163308       -2.82852736515616        0.63787067633643
C            1.02448318799721        0.49315707890655       -0.85674400083520
O            0.35458227140226        0.75318571493949       -2.06452096878857
C            2.53254768729201        0.75523829340761       -1.01146607027023
O            2.77922576691556        2.11336171528651       -1.25381778234386
H            5.29335921162281       -0.48737723176734        1.75986527483433
H            5.23603831296161        1.29966850135466        1.80940520304302
H            6.47483170331974        0.47159503774201        0.82153086267305
H            2.98470889963487        1.06963496987021        1.07934682812194
H            1.26208117220253       -0.53971375955942        1.73081962110150
H            2.07065001547156       -2.79140351863852        2.29097254660279
H            0.47926329051996       -2.96100242346628        1.49892101222706
H            2.95280001787504       -3.28545323308401        0.19806046458323
H            1.11262292918776       -1.64688631526158       -1.11747911005560
H           -0.91174560147900       -1.09673886979526        1.81553328828444
H           -1.61852429388906        1.22195132576452       -0.99735942402281
H           -2.75545183904897        3.31566065845740       -0.42979911187507
H           -2.86221022279831        2.83649792456830        1.28534173934060
H           -0.59519289555820        2.97566641442699        1.34380410361992
H           -4.15461326131462        0.87913200184376        0.67365203099473
H           -4.88367131648345        0.79009965483881       -1.66069169052719
H           -2.86483142254199       -0.98008415781790       -1.39332037162118
H           -5.19324689009138       -1.52568547244361        0.08050802782491
H           -3.32341325238402       -1.23233045854318        1.62715029910200
H           -2.13826074438449       -3.06602586014320       -0.15231524755115
H            0.62592669003073        1.22010668310466       -0.14103295918543
H            0.59937475255369        0.09005898550254       -2.72912278884484
H            2.94220019304240        0.13675184011373       -1.82599390523080
H            2.17408672775107        2.41949501608447       -1.94923087534051
