48
 energy: -84.640309374966 gnorm: 0.000746795348 xtb: 6.7.1 (edcfbbe)
C            5.65345007371741        0.09702768321650        1.05798110141651
O            4.72774731964619        0.30196892501018       -0.00251901189727
C            3.40258308249068        0.38609919366941        0.40425219877725
O            2.98054686892724       -0.86870222281236        0.85010764635273
C            1.54992802696253       -0.87995311682553        1.20239606031841
C            1.10270195816946       -2.05184887672939        2.02241335112887
O            0.81489945963331       -3.27589674696119        1.14986094285176
C            0.82511611934241       -0.71432753243726       -0.14882551423580
O           -0.51613484062646       -1.15858992391036       -0.14379689958923
C           -1.39145536006502       -0.71084539372759        0.88050767702189
O           -1.58537350710621        0.65441338189909        0.91489127218937
C           -2.43362435101765        1.20348792236369       -0.17902717811219
C           -2.85171768696019        2.62235242330972        0.03164708681016
O           -1.63256920080395        3.54417875784777       -0.08651170403561
C           -3.73040560445674        0.39647795839622       -0.31071172216185
O           -4.47528793886058        0.84765555227895       -1.41427152922918
C           -3.44038335197717       -1.09171064346826       -0.50022826182233
O           -4.62123956100358       -1.85444737041113       -0.59395042125335
C           -2.65259973390796       -1.56612896420436        0.71812122454989
O           -2.22174108555557       -2.89671710747600        0.61664475746990
C            1.07797733217645        0.71663939343392       -0.63286686454886
O            0.40214951583569        1.05372743466909       -1.81829197816566
C            2.60250379915322        0.90119539512737       -0.80690876886032
O            2.93255497807359        2.25608776027890       -0.95955923101474
H            5.42532963256465       -0.82825028398895        1.59109965885569
H            5.62198988880498        0.93964362468777        1.75502290099019
H            6.62800006369358        0.03365553385773        0.58314436494530
H            3.29377667577046        1.12608094576076        1.22869657570576
H            1.39604706738092        0.01509786952802        1.82728603180542
H            1.95303157951191       -2.37448680674075        2.64284885322770
H            1.47702682452542       -3.44858464937639        0.44788061036820
H           -0.07847097754230       -3.13242650999157        0.75571692007556
H            1.30386843713341       -1.38935846800978       -0.87252372993048
H           -0.91917225063545       -0.96101759220201        1.85070308806434
H           -1.86079487833424        1.08312093083642       -1.10954985128965
H           -0.86555257838776        3.21490424777094        0.42413695438482
H           -3.14802591182452        2.74602722880971        1.08639754226980
H           -1.40683577646554        3.58807275194302       -1.03791861029375
H           -4.31864524876209        0.51891400991330        0.61531032399182
H           -4.46308541346323        1.82297906017285       -1.38008699547251
H           -2.83015513288686       -1.23051195224902       -1.40545410773157
H           -5.21479366279513       -1.40529400169686       -1.21407993893133
H           -3.28323223894456       -1.42888704158873        1.60915554033977
H           -2.99609023985489       -3.45009845694388        0.43141168586860
H            0.72241321897322        1.42366074579704        0.12303601105136
H            0.56841879354033        0.38170993589229       -2.49489673069118
H            2.94264013802958        0.31662193162019       -1.67530953346397
H            2.57496366153569        2.57684906480574       -1.80282180719115
