48
 energy: -84.741908607635 gnorm: 0.000844347886 xtb: 6.7.1 (edcfbbe)
C            5.43187826858497        0.53516375999096        1.45003557951836
O            4.67561857593798        0.69534696085868        0.25150862760027
C            3.31824879084589        0.47333216787331        0.40194828117410
O            3.10399662145052       -0.86409364693853        0.77127584323003
C            1.74554307726775       -1.18859076138508        1.02926190390915
C            1.81767954994200       -2.63609070484659        1.51620081945960
O            0.37225457926126       -3.11495564078912        1.82403089635564
C            0.91532333376326       -0.95101264785028       -0.26403957338122
O           -0.46108680911138       -1.29234000450919       -0.11461144120424
C           -1.21507993364207       -0.79908698535641        0.96763893919138
O           -1.32295712094468        0.58943152341814        1.03423292156192
C           -2.03079686302473        1.18412489889603       -0.05861254036953
C           -2.11550959482699        2.68241689949637        0.22424849521531
O           -0.86200304872770        3.27636275456018       -0.02689140217737
C           -3.43600093712245        0.57120623154187       -0.22110467777270
O           -4.13877678287816        1.15778829199034       -1.28203219648269
C           -3.30710027572983       -0.95143843155672       -0.37353861734539
O           -4.53872706084820       -1.59900623015459       -0.57001600416587
C           -2.58090751330598       -1.49358111482272        0.86567917870074
O           -2.35865139938645       -2.87547598882792        0.80761028242209
C            1.12528935923908        0.47703950098794       -0.78605353093333
O            0.47125979440362        0.62479687993219       -2.02868519891740
C            2.62517472200518        0.76239824862607       -0.93673281989218
O            2.83624930340201        2.06204650764627       -1.41663493628179
H            5.32362453359433       -0.48058169643611        1.83246925490708
H            5.09693299379728        1.25227170649553        2.20537571895984
H            6.46092510332798        0.73323000591907        1.16652426190330
H            2.89603725342856        1.13886678885364        1.19272690745238
H            1.36573152117647       -0.51317333554486        1.81616006865121
H            2.12419436860243       -3.22505048800308        0.62618787446057
H           -0.23769902768280       -3.18738108254211        1.05147866811772
H            0.49044350749714       -3.99246429100698        2.24040317874789
H            1.26022087297857       -1.64296744915840       -1.04203987276945
H           -0.74528388127947       -1.06255065347674        1.92601339683849
H           -1.46775371584491        1.02389432727525       -0.98808205380108
H           -2.88825411472910        3.10596614532845       -0.42757413201600
H           -2.40222233372722        2.81333412652296        1.27494803483569
H           -0.93740994862332        4.23148047234982        0.11519506823463
H           -4.02628305846739        0.79804572521042        0.67629086436522
H           -3.72043593591240        0.92412100373485       -2.12375246913778
H           -2.69857591744381       -1.18759397291694       -1.25507969332132
H           -5.22197665299273       -1.19419270392436       -0.01688232547859
H           -3.15881011157347       -1.23994590290643        1.76896651822390
H           -3.14329671649137       -3.29677574229498        0.41987841518490
H            0.70985164070753        1.19920087435502       -0.06371302845572
H            0.88983214715602        1.36636238853404       -2.49623659871624
H            3.06063113920208        0.09362757146278       -1.68701673747115
H            2.61421371231238        2.71030169737909       -0.73186214898248
