48
 energy: -84.855686042394 gnorm: 0.000474296732 xtb: 6.7.1 (edcfbbe)
C            5.30563612839222        0.66342512234931        1.34388081956866
O            4.56017908526386        0.65659160269712        0.12861022296582
C            3.20347077057076        0.44217578624166        0.28544843130395
O            2.98723518153686       -0.89204243248336        0.68786176890507
C            1.62195789861271       -1.20078017263755        0.90272866890851
C            1.58855007568745       -2.66827660110508        1.36514616530101
O            2.16427301188707       -3.52481839517025        0.41803888203193
C            0.81659047612042       -1.00752526464629       -0.39555984871484
O           -0.55977459340422       -1.34696597060529       -0.27359988462559
C           -1.33053239695724       -0.83005953012483        0.78314216689003
O           -1.41978036888513        0.56408853303461        0.81475622395850
C           -2.15364819755549        1.16148871646515       -0.25863377653036
C           -2.18222069810608        2.66013505984004        0.06083643500055
O           -2.86192796893829        3.34160509469287       -0.96511073505426
C           -3.56309928373883        0.56853797450365       -0.37531351450340
O           -4.24232765903880        1.03026558009651       -1.51643349639945
C           -3.47838098464234       -0.96058000336683       -0.50155683806429
O           -4.76098784740991       -1.53274108497672       -0.53006354939809
C           -2.70741960545190       -1.52698361876029        0.69319267563447
O           -2.55361651381019       -2.91417236871624        0.65891840668205
C            1.02830607484481        0.41462015568011       -0.95543922931342
O            0.35636553226998        0.59560803811770       -2.17048792337283
C            2.52902142676593        0.71689298455271       -1.06865835191968
O            2.68113519847877        2.05929030093891       -1.43964352702109
H            5.22226259393004       -0.29814364905344        1.85135324189410
H            4.94746245991441        1.46053923837875        2.00131274421460
H            6.33443266595072        0.84882753406180        1.05017183247104
H            2.77762096110379        1.12561847666179        1.05090258616132
H            1.22334722317534       -0.54078863172126        1.68720035332223
H            2.11044621013437       -2.74312410535138        2.32678024985339
H            0.55352810119531       -2.99170676502954        1.48749280498655
H            3.08422683022531       -3.25356926528803        0.28066079773640
H            1.17962642075609       -1.73792742507608       -1.12954960651518
H           -0.87721699582582       -1.08715730245365        1.75181814128422
H           -1.63653354339445        1.00074484785306       -1.21443319180805
H           -1.14607149566418        3.00557502118403        0.14883193163624
H           -2.68438792126639        2.79687981837296        1.02730704692004
H           -2.80369961386042        4.29618032647230       -0.81556125015423
H           -4.13746965684781        0.81150461961323        0.53512141344145
H           -4.08016934341688        1.98520819960116       -1.60929906150818
H           -2.93248227276489       -1.19996921859726       -1.42799360240644
H           -5.28091436226781       -1.05892089243992       -1.19801663580467
H           -3.27080322172300       -1.31322572153633        1.60711202293809
H           -2.12254287030363       -3.16442313387355       -0.17263377651149
H            0.59123307164971        1.14652722432300       -0.26855304510971
H            0.75476468363397        0.04309799052910       -2.85979923163484
H            2.99070057184428        0.04770014468129       -1.81054625178238
H            3.62617877417609        2.25974707340513       -1.52339276111603
