48
 energy: -84.750070649093 gnorm: 0.000866262143 xtb: 6.7.1 (edcfbbe)
C            5.36020943392306        0.42346574855560        1.39427657684504
O            4.58361135035968        0.42220452849876        0.20089534946313
C            3.21306049380312        0.36748140732810        0.40382006086880
O            2.86429478392521       -0.89847565736046        0.88606461783042
C            1.43289829188737       -1.05814764131248        1.14878133573379
C            1.13852952645559       -2.34415127035112        1.86751047634303
O            1.82269859400410       -3.47805827641746        1.09010891208998
C            0.69905884167690       -0.91558024986503       -0.20090805414228
O           -0.67667699942071       -1.25797139814077       -0.13042973546416
C           -1.47117440306995       -0.69862503131815        0.88040408929902
O           -1.55282024760075        0.70260672232899        0.86410492191568
C           -2.21390646965705        1.25501580297689       -0.27460795291435
C           -2.24666965903625        2.77662197746431       -0.08086384457635
O           -2.50654191568140        3.46794683994757       -1.27087117467806
C           -3.62834383067789        0.68412443046547       -0.42804838351004
O           -4.20646548127027        1.23231955628432       -1.58465627434643
C           -3.55374383628983       -0.84326936466236       -0.49803307305693
O           -4.86710697707071       -1.33361027053936       -0.61529783237121
C           -2.86420538362744       -1.35073884442690        0.77087037430103
O           -2.80943333526768       -2.74621921184758        0.70839892681657
C            0.99753600457456        0.46738480439547       -0.79831086021842
O            0.38553341867175        0.57827478575937       -2.06066469171165
C            2.52060832242068        0.63922717967220       -0.94016127108184
O            2.83038235720391        1.89589550128978       -1.47815248428039
H            5.16284462517229       -0.47277088989966        1.98485078009752
H            5.13691463248551        1.31189236747423        1.99273549858065
H            6.39458516673680        0.44072093364293        1.06468474334693
H            2.89505718572960        1.13645672873543        1.14606851308853
H            1.12042569652750       -0.23067488335624        1.80486289794191
H            1.72188322543317       -2.32730797601460        2.80575262301495
H            2.68334449488083       -3.17189204926304        0.73357817671423
H            1.22422596237461       -3.73041339994818        0.35961291475779
H            1.08440828755792       -1.64971554794068       -0.91864082134543
H           -1.02980302240744       -0.93502038937244        1.86229990327343
H           -1.65315430502974        1.01876823850076       -1.18972856820793
H           -1.26773424270108        3.11158545329872        0.27050508403401
H           -2.99071666518592        3.02248967635880        0.68965226686220
H           -3.28594824706583        3.06637849414101       -1.68998789824792
H           -4.22875243359297        0.95478984337189        0.45697050390633
H           -5.01074528662563        0.72823824448764       -1.78504377212031
H           -2.94980921841578       -1.14440646562166       -1.36646739317981
H           -4.83887782909994       -2.29767693221240       -0.52396611374067
H           -3.45228354983285       -1.02007034310012        1.64291032080923
H           -2.29224428469034       -3.08888298758844        1.45151414633321
H            0.61276434742631        1.25010073352158       -0.12281019680529
H            0.85487448387564        1.25958528562118       -2.56923456914732
H            2.90420245263704       -0.08695522160685       -1.66545148366712
H            2.66553462245003        2.59576894718313       -0.82965956291697
