48
 energy: -84.851524204605 gnorm: 0.000888737330 xtb: 6.7.1 (edcfbbe)
C            5.36611840500700        0.69149695432073        1.33179732204057
O            4.59838450803101        0.67122372737634        0.13062422617546
C            3.24300656855466        0.46904909557959        0.31268322177552
O            3.02618260059531       -0.85853440942406        0.73653021083926
C            1.66316764954563       -1.16956674433726        0.96114421931269
C            1.64406466075535       -2.63631593541327        1.42644138257573
O            2.27854396515236       -3.48144273527872        0.50788876981968
C            0.84400932846343       -0.98716353742994       -0.33078778767506
O           -0.53110415804192       -1.33061432836744       -0.19785520082446
C           -1.29845476451935       -0.81541637745867        0.85684929386254
O           -1.40045322704868        0.58081860031162        0.89517529468039
C           -2.11478243753096        1.20164596455658       -0.17857606154172
C           -2.19502004158987        2.68525611080720        0.22495435601824
O           -3.14241951747876        3.43549504593858       -0.47936904017123
C           -3.49889302532632        0.58559618767890       -0.41840925442490
O           -3.97483123021670        1.09434746667621       -1.63755743490324
C           -3.39534854725992       -0.94303951714664       -0.48502951547126
O           -4.70108629388494       -1.45231665301533       -0.60107475861837
C           -2.69659089935595       -1.46457785175394        0.77140035801401
O           -2.65692474264919       -2.86209511302156        0.69481802082981
C            1.05072614162730        0.43270313102940       -0.89908873071682
O            0.36536785721880        0.61250472228907       -2.10668822438231
C            2.55089125851431        0.72832802331093       -1.03509138483010
O            2.70310897753528        2.06454783641731       -1.42659579313497
H            5.29049638506799       -0.26346009772067        1.85268062517184
H            5.02267022695802        1.49768084569022        1.98568403276411
H            6.38962006349054        0.87046862676448        1.01616540553855
H            2.83327545142841        1.16590149448198        1.07435053374252
H            1.26755568074542       -0.50638003221192        1.74479591144829
H            2.12422491709028       -2.70082096438278        2.41077810293715
H            0.61237487580689       -2.98197000683500        1.49540394132670
H            3.18419991631582       -3.16293406509449        0.37716979458866
H            1.20062587684253       -1.72158220937278       -1.06396373118065
H           -0.83968184887985       -1.06463087755789        1.82699559044164
H           -1.55768061969838        1.09155037506272       -1.11856037861593
H           -1.19232353795455        3.12311823332961        0.11871932163675
H           -2.48411828987784        2.73585362611596        1.27833963326092
H           -3.06695365945215        3.24409724792221       -1.42608293592124
H           -4.17986095074388        0.85534527327861        0.40366791869647
H           -4.82285689069424        0.66819384023077       -1.83321599443190
H           -2.79037825655971       -1.22677739923717       -1.35835886923575
H           -4.65395257724134       -2.41911933031186       -0.55803991864566
H           -3.26709080915341       -1.13024829515793        1.65097108032361
H           -2.38353199831379       -3.24220815652148        1.54092915264655
H            0.62549282711572        1.16990501562385       -0.20973718553934
H            0.75012928067647        0.05076984673912       -2.79749387872464
H            3.00040044099337        0.04771537631691       -1.77433729947036
H            3.64805947529240        2.26277692592499       -1.51538337607062
