48
 energy: -84.843404147905 gnorm: 0.000791078680 xtb: 6.7.1 (edcfbbe)
C            5.42504654958110        0.64330522981711        1.27250242174566
O            4.63252269182875        0.66736843465965        0.08856737709712
C            3.27841792423725        0.50818502497371        0.30248859193320
O            3.04841220785855       -0.81553399637745        0.73508838200292
C            1.69250678030659       -1.13515814332849        0.96982522123569
C            1.67379052925908       -2.58803312503048        1.46149874261472
O            2.02359504442443       -3.43648336561169        0.39858148776141
C            0.86766364646849       -0.96744940860587       -0.31984517965314
O           -0.50346763058370       -1.33249562327893       -0.19833667597614
C           -1.29103698838578       -0.83730592523960        0.85115632580835
O           -1.41975420448127        0.55712307628573        0.90071785246643
C           -2.13152085326579        1.14444277152816       -0.19178437343492
C           -2.17175045088214        2.65689809159367        0.05069937887045
O           -2.17106155415945        3.30127549714515       -1.19749105929184
C           -3.54016477038569        0.54584880591445       -0.34422013953549
O           -4.24526793053360        1.14367832737444       -1.39201076389493
C           -3.41392897610180       -0.97865409578491       -0.49222940605611
O           -4.69798948312696       -1.53787834388930       -0.58779847866905
C           -2.67238979891042       -1.52191474417874        0.73680458748495
O           -2.58467984972930       -2.91277214076988        0.60096551569526
C            1.05876077792580        0.44703973390620       -0.88488192201782
O            0.40924513431531        0.61436197004497       -2.12052687265748
C            2.55149216251367        0.79196043879942       -1.01586208313913
O            2.71825167673932        2.15081119073579       -1.31705442528919
H            5.33584904694531       -0.32302758520142        1.77146304055162
H            5.11587829264959        1.44363395991214        1.95091635773356
H            6.44510887444596        0.80558361153180        0.93763288866660
H            2.91004980016459        1.21672081412304        1.07606645632089
H            1.29783498658108       -0.46592402274342        1.75162883376873
H            2.39435904758683       -2.66660908062750        2.28316067420533
H            0.66699536970175       -2.82180784371449        1.82767247185350
H            2.11278073669537       -4.34241977537885        0.72742580456855
H            1.25015527033885       -1.69765585342328       -1.04376515220441
H           -0.83980483867552       -1.08522131357723        1.82513168290046
H           -1.58211574413599        0.97347422322220       -1.12847154953084
H           -1.28188646982492        2.92631638566603        0.63580138986376
H           -3.06762454268728        2.90968009685480        0.62851181844256
H           -2.31792021480094        4.24930239891206       -1.07235085430557
H           -4.13505133977880        0.75259027063345        0.55342787202847
H           -3.75552208250938        1.04010174897083       -2.22101757674997
H           -2.82084691724125       -1.22074371378505       -1.38694404720408
H           -4.60589946070719       -2.50350374035512       -0.57994522627233
H           -3.25049820813643       -1.24601463181508        1.63107714782069
H           -2.31264444285281       -3.32110662872467        1.43483767180946
H            0.60345087864483        1.17870572003973       -0.20863358314212
H            0.69300767797828       -0.07877171677645       -2.73644413724156
H            3.02138955663809        0.16102191459742       -1.78630512208363
H            2.13941409508472        2.37303004019283       -2.06488939617947
