48
 energy: -84.845840525424 gnorm: 0.000881327223 xtb: 6.7.1 (edcfbbe)
C            5.42986124509144        0.64576930315869        1.28029910566249
O            4.64015831051999        0.67799747673602        0.09413307607662
C            3.28644749880411        0.51344657129534        0.30009333005154
O            3.04790945207396       -0.81330663772154        0.73192559013334
C            1.68672665487215       -1.09294511117540        0.99744803113736
C            1.63190191930030       -2.51649074675824        1.57155094395507
O            0.71495202789265       -2.56337486567580        2.64277913770177
C            0.86694581538981       -0.92346269478930       -0.29606373558191
O           -0.49342251582719       -1.31185601460898       -0.18884491696541
C           -1.28176129071052       -0.83358221118927        0.87483014534587
O           -1.42089186209439        0.55746038538092        0.94332981787484
C           -2.15534225985676        1.16294833253258       -0.12404260649109
C           -2.24158914283972        2.66566700997972        0.17435268843897
O           -1.96393332842582        3.37338166385191       -1.00878478178124
C           -3.54862422641137        0.53438551583940       -0.29815720609116
O           -4.25018817517412        1.14417959968984       -1.34324425971538
C           -3.39701637142381       -0.98339735360992       -0.47266766944662
O           -4.67139582748750       -1.56153165235375       -0.58830887909013
C           -2.65100498981046       -1.53197446582687        0.74986956303883
O           -2.54083048609277       -2.91965878973100        0.59849338569968
C            1.05726818143202        0.50138143368553       -0.85698285871972
O            0.35013477545144        0.68849577885503       -2.05333156033786
C            2.56023471535996        0.78291450932949       -1.03245491310284
O            2.80952850082153        2.06507612663564       -1.52765354154901
H            5.34475608963245       -0.32540879249119        1.76992648955229
H            5.11493612143782        1.43665745878485        1.96705138300918
H            6.44992332370843        0.81695699331850        0.95019754940694
H            2.91377777931295        1.21271070319965        1.08177819540732
H            1.31583759962606       -0.38944381921538        1.76052940904069
H            2.64652053047009       -2.75503960334126        1.90402462447971
H            1.33389691581640       -3.21986300022169        0.78476834007579
H            0.91707463722768       -3.33175494839931        3.19656813908503
H            1.26137703315452       -1.63301060544837       -1.03593872051042
H           -0.82149684459042       -1.10283134786933        1.83683631859556
H           -1.60292540741823        1.04303396839565       -1.06688682003442
H           -1.50260521931748        2.89491204079629        0.95412111605537
H           -3.24208018079517        2.90506561006485        0.54940316064568
H           -2.18839161910794        4.30669657261868       -0.88882022264642
H           -4.15619687094954        0.71398326773125        0.59673243817955
H           -3.77780217699947        1.00812338859455       -2.17752149416841
H           -2.79432983784025       -1.19912075885006       -1.36846781990795
H           -4.56660176071124       -2.52513217908789       -0.56307746505874
H           -3.23352340825955       -1.28137011854513        1.65028931672118
H           -2.07070309652115       -3.29563495254822        1.35555408340801
H            0.63329035726288        1.22804294563651       -0.15414255991653
H            0.75724979771498        0.17380369495550       -2.76592638167496
H            2.99056866969988        0.09903480281565       -1.77272365391824
H            2.38046495748229        2.73383946742475       -0.97403034992492
