48
 energy: -84.603912690847 gnorm: 0.000558990901 xtb: 6.7.1 (edcfbbe)
C            5.41110136788586        0.21956526394177        1.17900481538132
O            4.57091219618618        0.18984769908674        0.03093980452664
C            3.21221605669601        0.21287087868373        0.31329637936534
O            2.83869650744480       -1.03746716295219        0.81471962437139
C            1.40434298657876       -1.15563018889806        1.11615435917740
C            1.08294983296644       -2.37723305596769        1.91706914989957
O            1.62773708532643       -3.60644365925134        1.17763782624962
C            0.68432155805404       -1.05208982821495       -0.24415121940538
O           -0.68501827596607       -1.42973798540805       -0.22663245492793
C           -1.51623131291170       -0.87883028388753        0.75879025012166
O           -1.62139414291608        0.51462563840762        0.73644807821984
C           -2.27755439833946        1.10499055508920       -0.37937794482585
C           -3.14526554608965        2.20553192608852       -0.14001572453092
O            0.31207360508756        5.34319278469439        1.73836333467673
C           -3.69243596073431        0.47027995048321       -0.80087402054261
O           -4.01066553125438        0.74016522421190       -2.12511568995482
C           -3.52442868222486       -1.06978680625948       -0.71891283491295
O           -4.77284594305750       -1.68798181473622       -0.83755257877134
C           -2.90636904336572       -1.51615357174443        0.60758601994578
O           -2.78407999715863       -2.90264141958309        0.67149329847651
C            0.95616853240748        0.33511117868983       -0.84141683450305
O            0.32234106432132        0.53598323913778       -2.08240438576295
C            2.47379497607377        0.54502553407482       -0.99095455202553
O            2.76369075968886        1.87611341456395       -1.32226856168494
H            5.20444434877373       -0.63248457264989        1.82988022194458
H            5.26030961589588        1.15002754047957        1.73427477089485
H            6.42575494772268        0.16834140378023        0.79541444300699
H            2.97650279850077        1.00195087498310        1.05967124102865
H            1.12446617655529       -0.28739355129198        1.73313853118171
H            1.71521163515315       -2.34734562984565        2.82106489187765
H            2.46858283269160       -3.39966666650631        0.71776958221816
H            0.93588290807444       -3.88179617277933        0.54379137037699
H            1.12349424142984       -1.79065877309020       -0.92885194685406
H           -1.10700853114366       -1.12580395284594        1.75083232110922
H           -1.66227793328196        1.08977749811110       -1.27813588977394
H           -0.44890121155307        5.93143016915568        1.68934500559985
H           -3.34446406391431        2.28590661127621        0.94076963528752
H            0.85237826819454        5.52174547384121        0.96164324555394
H           -4.51678856285672        0.73114695728152       -0.11157833687150
H           -4.14517253789514        1.69420201788250       -2.25137379977372
H           -2.85463445477871       -1.36490517104081       -1.53721620650225
H           -5.14614790938857       -1.49582774944920       -1.71147034212769
H           -3.53285669125773       -1.14065294394405        1.43423264658475
H           -3.63597405708161       -3.29391103927449        0.41548467448343
H            0.56296142132092        1.11188470483686       -0.17592748841191
H            0.53509578751477       -0.19554100898154       -2.68295720946390
H            2.86858750524778       -0.13404183056643       -1.76499878792431
H            2.17780971507735        2.14352711417181       -2.05019308639107
