48
 energy: -84.853039867029 gnorm: 0.000507022044 xtb: 6.7.1 (edcfbbe)
C            5.47463576426884        0.58301533300607        1.27012937153895
O            4.66400072664605        0.61670547978993        0.09918515696452
C            3.31079414525557        0.46637640451204        0.32012200942832
O            3.05332567470185       -0.85822593608606        0.74620348120197
C            1.68405534746259       -1.13090441625859        0.98870533100552
C            1.60228118170982       -2.57888091827868        1.49794399580286
O            1.96290020848111       -2.69702959452105        2.84724408447064
C            0.86770267486799       -0.93439825475994       -0.30223854144924
O           -0.49938143116030       -1.30099210495058       -0.18643074132786
C           -1.27732552448973       -0.81268625755881        0.88998416284508
O           -1.38781670839059        0.57291207089161        0.95565326727453
C           -2.16971639481984        1.20604979530749       -0.05959152296335
C           -2.29787714260506        2.67986821506931        0.32854061249489
O           -3.05051737085487        2.79039026859125        1.51361113057409
C           -3.55539465054015        0.57300583124527       -0.21787986844203
O           -4.17131840066763        1.18102693535948       -1.32476773460301
C           -3.41241089344665       -0.93769579182663       -0.41877211193148
O           -4.70250834513391       -1.49325059879681       -0.51964859398218
C           -2.63765526167304       -1.52577590453608        0.76423902268612
O           -2.48338242307582       -2.91298607354541        0.64116012424094
C            1.07375813406366        0.50341543730827       -0.82220459523994
O            0.35361850360662        0.75327948563341       -1.99838800565033
C            2.58129661188455        0.75568982352537       -1.00671422254251
O            2.85205951674911        2.03391960633260       -1.50002345257467
H            5.44909998705455       -0.40728986798894        1.72617192790668
H            5.13595097726315        1.33291367414951        1.99057867612293
H            6.47928878882964        0.81520283417698        0.92949758284766
H            2.95468723984210        1.16718494711009        1.10794600745073
H            1.31298818425011       -0.44161697368506        1.76395640910777
H            2.24105666704354       -3.19869575403622        0.85904890217645
H            0.57210552567844       -2.93174501415537        1.42917363104121
H            2.90257286614118       -2.48915125433601        2.94540877516803
H            1.24481571569259       -1.63528153938399       -1.05744225960069
H           -0.81492690143408       -1.09026776259122        1.84814162569523
H           -1.65460900131641        1.13941958288014       -1.02735328231517
H           -1.29090884706441        3.08805460021414        0.47316133285638
H           -2.79139371086701        3.19185961933342       -0.50450489771508
H           -3.16679802266247        3.72743263004009        1.72558607919121
H           -4.13994673447150        0.75297968496717        0.69686882895941
H           -5.00206120690204        0.71154184641454       -1.49676354137369
H           -2.84743707097286       -1.12064848860103       -1.34733351294372
H           -4.64243035046380       -2.44783880487648       -0.36112163511710
H           -3.20789941235789       -1.35847176828014        1.68369343075788
H           -1.87263733436561       -3.08944584884684       -0.09188660657370
H            0.67412685218567        1.20955872458152       -0.08452018363664
H            0.74809818255141        0.27271249866161       -2.74141467013872
H            2.99199457672794        0.06739174701131       -1.75395943684565
H            2.49306209668133        2.71275783325812       -0.91053056306922
