48
 energy: -84.845348238196 gnorm: 0.000850494403 xtb: 6.7.1 (edcfbbe)
C            5.42381421731155        0.58128708769113        1.31438978549148
O            4.62536594899359        0.68003174561028        0.13825286556273
C            3.27183006474106        0.51442906880644        0.35133052695211
O            3.03846124820628       -0.82535275039883        0.72903281459110
C            1.68111351177768       -1.13998227504998        0.95718151050428
C            1.63349941242068       -2.61220518582104        1.38624751912181
O            2.05367941539564       -3.41304998519470        0.31042542323054
C            0.84776063877224       -0.91846604900254       -0.31934366300911
O           -0.52072525734110       -1.28553696464458       -0.18191837717909
C           -1.27662355368722       -0.81464767438207        0.90235719942975
O           -1.39144266624593        0.57486838031543        0.97215116036238
C           -2.14008803181628        1.18326489239122       -0.08876889291121
C           -2.16568618396602        2.69080843433826        0.21692985716532
O           -2.67272842703323        3.02351408856185        1.48195619171711
C           -3.54161720780032        0.56115467915077       -0.23434366887928
O           -4.19815408228064        1.00309062442971       -1.39753173301298
C           -3.41153802747904       -0.96301146609711       -0.36999687560088
O           -4.66971074102152       -1.58956233294906       -0.40017772247744
C           -2.64942288446836       -1.49984829659784        0.83921837354848
O           -2.46302790170427       -2.88431001403506        0.80446617721732
C            1.04288464540425        0.52039654583063       -0.81801786763066
O            0.37949500219305        0.76208092724210       -2.03444371910584
C            2.53934880314162        0.85365574843338       -0.95087381030902
O            2.71772192275596        2.22110658137588       -1.20412855662423
H            5.34009310072605       -0.41634938713688        1.74843612805593
H            5.11430700176410        1.33296566498638        2.04622871242333
H            6.44156779715286        0.76990243982930        0.98630206200869
H            2.90877135236831        1.19086606433829        1.15565181059926
H            1.29681146716464       -0.49841080034418        1.76590897570156
H            2.30217629519956       -2.73371245130904        2.24683838287763
H            0.60437569526527       -2.85889172123071        1.67363279289592
H            1.99051612682542       -4.34447389801392        0.56600787199508
H            1.21774637150197       -1.62037642626426       -1.07656915859057
H           -0.79978506299596       -1.08807689696122        1.85548445871099
H           -1.62001786222187        1.03643471622791       -1.04575087822833
H           -1.13800579722036        3.05795257007254        0.21660066066946
H           -2.71784126056852        3.20530455776701       -0.57952722437090
H           -3.58381653421180        2.71298798566730        1.57384362994544
H           -4.14891439507304        0.76674797117710        0.66052245362033
H           -4.40049307441714        1.94694501061785       -1.34253897121395
H           -2.84203659850340       -1.19131641297961       -1.28185356842225
H           -5.18565316024472       -1.20440540978058       -1.12448209341118
H           -3.20206783255024       -1.21575444255696        1.75094389155465
H           -3.29876441574893       -3.29042197445172        0.52143982748286
H            0.60818480183878        1.22061196821853       -0.09607699640196
H            0.63121253853190        0.08670757024121       -2.68219527471443
H            2.99665234564283        0.24503272552043       -1.74598688399064
H            2.17915423750878        2.46412169931736       -1.97516114549690
