48
 energy: -84.855888794706 gnorm: 0.000357668881 xtb: 6.7.1 (edcfbbe)
C            5.42362284431131        0.51832560745948        1.33493498965576
O            4.64019193285830        0.62715187623019        0.14835140670452
C            3.27958067404097        0.47180077242901        0.34272263768416
O            3.01943801666414       -0.84684411260957        0.76478244479813
C            1.64972563642423       -1.10122106026121        1.00329700268338
C            1.55553322246292       -2.53543838271346        1.55009369411005
O            2.15179541611283       -2.68757546893349        2.80841800677486
C            0.86304523853069       -0.93443755049595       -0.31083630341124
O           -0.51340568182592       -1.27598918893132       -0.22404041155380
C           -1.31529514954704       -0.74681802811956        0.80845390154194
O           -1.41452544104958        0.64530570550042        0.83758874152341
C           -2.13353080177801        1.24685191879325       -0.24107384695073
C           -2.17596572686653        2.75425706567918        0.04456452210204
O           -2.55177842834866        3.50809151924176       -1.07337252026194
C           -3.54408987924457        0.65567661087782       -0.34968627810638
O           -4.20505536807820        1.26403561609375       -1.42851702264256
C           -3.43918905683651       -0.86149153701020       -0.53284481697888
O           -4.74437304365525       -1.38112818619927       -0.62453872960995
C           -2.68231048797799       -1.44891454751994        0.66431467834728
O           -2.53777110547097       -2.83730301196825        0.55841666936981
C            1.08608292505599        0.48194479148415       -0.88570228812407
O            0.41729359082717        0.64296140911157       -2.10541560487811
C            2.59051303813866        0.76265493633906       -1.00197408596143
O            2.76379634871530        2.10118837539374       -1.37512911005753
H            5.29193042459022       -0.46458542934947        1.78913223268237
H            5.13895738732749        1.29780329287876        2.04719631547876
H            6.45197294542673        0.65498081896948        1.01446090943691
H            2.90318017940344        1.18378335118076        1.10947711494914
H            1.27749045004837       -0.37430811493996        1.74449995426996
H            2.11460204081350       -3.19116119349634        0.88021701031999
H            0.50425550139797       -2.84606299536944        1.56781779468219
H            1.67792879338376       -2.16505589561934        3.47097904198367
H            1.25026142994500       -1.66412801575823       -1.03281079412447
H           -0.88726041741445       -0.99734918744153        1.78921789788689
H           -1.60820750039252        1.08154843787654       -1.19140278860728
H           -1.17411996608187        3.08808401978660        0.32491353096477
H           -2.85470343919322        2.93769272366065        0.88970753835246
H           -3.34366436220045        3.10034706090049       -1.46366887439093
H           -4.09112396188790        0.85089730656586        0.58793289601762
H           -5.02755462594525        0.77717990890522       -1.59475517438326
H           -2.87784202230333       -1.07257887179097       -1.45673914465952
H           -4.70930962525438       -2.34045198732164       -0.49032790820888
H           -3.26711721148865       -1.27090723727215        1.57304893649787
H           -1.91146041270987       -3.02949396742546       -0.15720873045981
H            0.65062422294452        1.22845374556107       -0.21360647609911
H            0.86528462991560        0.14145307119496       -2.80344978232069
H            3.03677200185728        0.08481978904553       -1.74674401259973
H            3.71198083303730        2.28866422145602       -1.45152217855748
