48
 energy: -84.722317932506 gnorm: 0.000915121492 xtb: 6.7.1 (edcfbbe)
C            5.09430913473270        0.58058411578801        1.52483615226371
O            4.33082476058153        0.53669727131028        0.32495573546178
C            2.96432718809999        0.39568602297866        0.51673161039974
O            2.69818861597884       -0.92260431079373        0.91313437154428
C            1.28511520550325       -1.18883270244390        1.16257326575870
C            1.07843628710783       -2.54413789710616        1.78393601518481
O            1.89858091866052       -3.55080733782338        0.95694852220924
C            0.54676190777875       -0.98822332631704       -0.17607165474951
O           -0.81120952057588       -1.40539228740612       -0.14985118816367
C           -1.63652583305561       -0.96516491156121        0.89352413749229
O           -1.77635414176149        0.42962579400967        0.98055358098690
C           -2.57306865138669        1.08825996859219        0.05382884012052
C           -2.26469876333567        2.32252828035209       -0.30788267195489
O            0.98980506766403        3.89615145494734        0.18022437065541
C           -3.84670802619967        0.40122665357434       -0.38101260680419
O           -4.33500374435263        1.00858418806266       -1.54666698584114
C           -3.62886020414470       -1.10400945961331       -0.57377056757345
O           -4.88141414976749       -1.68665640805633       -0.84003341488498
C           -2.99275040805782       -1.66538616025397        0.69979551585699
O           -2.87751533600369       -3.05116271190195        0.55899906589281
C            0.74793167251545        0.45432299658341       -0.67305953522041
O            0.05683872467588        0.71193167721539       -1.86679309074218
C            2.25686815436473        0.73190766446602       -0.81209666565869
O            2.52007655227974        2.04024355327623       -1.22238542415656
H            4.95590764599248       -0.33355398334989        2.10587784304851
H            4.80272425310295        1.44494776748258        2.12899546294074
H            6.12818489412187        0.67470286861133        1.20647111161786
H            2.60255701991919        1.09243447305657        1.30416660706997
H            0.92044748571328       -0.43292524078771        1.87594541184681
H            1.63095537693134       -2.54047465273083        2.74209342910697
H            2.71345551072913       -3.11363286363822        0.63026729843566
H            1.33824323884993       -3.83403732356603        0.20775709139980
H            0.98012772598711       -1.65707106351809       -0.93172311131645
H           -1.18975172356386       -1.25708099395364        1.85753415326214
H           -2.91220148789434        2.85866976112601       -0.97261318488508
H            0.65034254784350        4.39232059590467       -0.57267333842153
H           -1.36694940254737        2.79496208731896        0.04306735473558
H            1.38987142150434        4.54245871316062        0.77369684739205
H           -4.58858420699485        0.51518233929686        0.43307054986393
H           -5.07906550122234        0.47399017233455       -1.86584692793923
H           -2.93813803320030       -1.27233326008303       -1.41230464197566
H           -4.77910337987114       -2.64958116689607       -0.80281648452384
H           -3.63208259865393       -1.40951302938622        1.56097796641867
H           -2.38315886524995       -3.42070956717665        1.30464575440060
H            0.32956248769898        1.15571022352607        0.05673282275476
H            0.44470514882583        0.19670901009810       -2.58964090176513
H            2.69556071047026        0.08811947852854       -1.58485170713024
H            2.00867130991646        2.66922333305566       -0.66548591903945
