48
 energy: -84.824623083702 gnorm: 0.000722722557 xtb: 6.7.1 (edcfbbe)
C            5.63436862151150        0.19595280922754        1.06919701542189
O            4.82086978703434        0.20108043922766       -0.10177762983117
C            3.45977267927820        0.22744092207204        0.14433340066156
O            3.07363695838919       -0.98349639738204        0.75576397641189
C            1.69133992106677       -1.03046792288195        1.04946810913088
C            1.42584529125871       -2.30425899296366        1.85842133258699
O            1.40903523876287       -1.96910436438182        3.22629416644063
C            0.89555662261407       -0.98820289559601       -0.26770517541516
O           -0.49844787073516       -1.19356004064376       -0.10984947891785
C           -1.21909519516194       -0.44871639588271        0.84817738456255
O           -1.18191789782967        0.93462547867518        0.64646687057041
C           -1.97169184821091        1.48106201839694       -0.36019333452892
C           -1.52652401349979        2.52546809091222       -1.04024693640079
O           -4.43226070095132        1.36946325409994        2.67768872592793
C           -3.36793276445604        0.90846926902899       -0.51612238610155
O           -3.99667156016339        1.31993438390464       -1.70318040025269
C           -3.30499811336133       -0.62966385685753       -0.50072349407668
O           -4.55597739160567       -1.23013311396457       -0.67896027178165
C           -2.64573684191296       -1.03341939556395        0.82733560303258
O           -2.62731425892125       -2.41481962372108        1.04227300410414
C            1.23220445228052        0.30818614712933       -1.03222268848664
O            0.54549467362919        0.39016262284174       -2.24797606943605
C            2.75475429461522        0.41616771927464       -1.21109374523991
O            3.04670327178958        1.67544241781966       -1.75175225213959
H            5.42282437428281       -0.68489759722074        1.67627772902302
H            5.45500543697844        1.10063761978009        1.65680183194082
H            6.65832104266935        0.17402816719159        0.70840222363806
H            3.19255484061552        1.07230358691864        0.81532397049507
H            1.42742530605423       -0.15792025803889        1.66735152738783
H            2.23007850528128       -3.01310698227117        1.63235515663234
H            0.46196471506538       -2.72914159621135        1.55395705154269
H            1.28811950615338       -2.77412524426248        3.75057062189071
H            1.20312431142221       -1.84630556041099       -0.87897594244213
H           -0.77865338003913       -0.58820954073815        1.84608705940062
H           -2.13398036255332        2.99124972616723       -1.79032495483859
H           -0.53882566276345        2.91714830106802       -0.88836821350718
H           -3.88487275531556        1.99820549277871        3.15794727112863
H           -5.26468052200987        1.31198668428781        3.16156731532923
H           -3.95958831785676        1.21555804851862        0.36296130503148
H           -4.30248963805111        2.23219072378147       -1.60816033487861
H           -2.69533328589462       -0.97402896384121       -1.34279082573693
H           -5.16252178193805       -0.93387387658843        0.01526820794213
H           -3.20943606989513       -0.60274391979241        1.66300032042233
H           -2.28335859043464       -2.84953738250320        0.24827092793534
H            0.89505691163682        1.17201660055494       -0.45220923574304
H            0.86448874296017       -0.29256122726728       -2.85738130016833
H            3.10637952317957       -0.38816520765227       -1.87577875754538
H            4.00443806535284        1.75024439646561       -1.88370466187264
