48
 energy: -84.648511234740 gnorm: 0.000560222628 xtb: 6.7.1 (edcfbbe)
C            5.57097803309879        0.34353018454936        1.19829347054915
O            4.68151512380779        0.55711137932669        0.10769127702941
C            3.33407349375560        0.49596971203841        0.44353247604518
O            3.00310894532506       -0.78953843121187        0.87929149275565
C            1.59109029782551       -0.89485257540627        1.22470008074106
C            1.24355291816302       -2.13311049733768        2.01129508564668
O            0.85619112436760       -3.28109026101273        0.96533394005777
C            0.81812040308256       -0.74573751212981       -0.10182509214959
O           -0.53371615353140       -1.16765961888892       -0.01490337105024
C           -1.32879186091746       -0.66075365149482        1.04576677289070
O           -1.46458673348628        0.71348079173121        1.01662743695964
C           -2.27967840846419        1.18090669893200       -0.12966851554788
C           -2.42312982069486        2.65702732372219       -0.26092726644102
O           -1.08914866978526        3.22216186995998       -0.88828230084302
C           -3.67773375575136        0.55916833908291       -0.01321052475754
O           -4.51076877013347        1.01517213429517       -1.04756208113337
C           -3.55507902826912       -0.96253461725919       -0.11196050508003
O           -4.79790625617884       -1.61473111901549        0.01787195613415
C           -2.64824314798276       -1.44717921673000        1.01826417254943
O           -2.31157437464352       -2.80344348165542        0.90900440738061
C            1.04212907090589        0.68797161926312       -0.61093494031824
O            0.32332832678282        0.99500797531169       -1.78011499154668
C            2.54857653171235        0.89396324970465       -0.81943519978349
O            2.76466435972873        2.23897760650491       -1.14883609055210
H            5.40996621996041       -0.64424011218729        1.63293089507083
H            5.41912581821902        1.10909856129246        1.96470444821666
H            6.56891032208545        0.41749863759928        0.77665925935086
H            3.10225981054144        1.22443591929374        1.25523039740328
H            1.37697980654155       -0.02695953835756        1.87395328054831
H            2.19476400291689       -2.51947200052441        2.41701427397348
H           -0.02067228633160       -2.98560277986724        0.61815857592525
H            0.68447961891463       -4.05916679433157        1.53344298515515
H            1.25650080505615       -1.44512337259515       -0.82513825500955
H           -0.81537515152976       -0.88786670170223        1.99668118679906
H           -1.82146155021675        0.76040065189258       -1.03526271968080
H           -0.63383362269744        2.48780733089841       -1.36692086652503
H           -2.40174174246594        3.10734031678666        0.74572180502672
H           -1.37147110679624        3.88821576785013       -1.54861764520981
H           -4.11066679527058        0.82219695265126        0.96716801873508
H           -4.27868759462501        1.95729972186338       -1.18562657228142
H           -3.09790052776455       -1.21774581299426       -1.08089840297003
H           -5.43299081888849       -1.15981131803968       -0.55475704664905
H           -3.16984733508939       -1.25278775646422        1.96838595022524
H           -3.13225205448095       -3.30868464801475        0.80110802483492
H            0.69206307403431        1.39736360821268        0.14674624047671
H            0.67667947704256        0.50441879607350       -2.53745716473197
H            2.89744450970125        0.23273901685831       -1.62996746414685
H            3.71481044540626        2.39124754617914       -1.26023093010678
