48
 energy: -84.744566394481 gnorm: 0.000658408865 xtb: 6.7.1 (edcfbbe)
C            5.52357703550922        0.22453170383000        1.09925526064112
O            4.64464568616290        0.34497073029853       -0.01333081672592
C            3.29754691337113        0.37491622470149        0.32159669498496
O            2.91646865537047       -0.86975329896343        0.82863823770022
C            1.48612543022865       -0.91041651045745        1.19997053685840
C            1.08167394438145       -2.06714072165395        2.05155955918726
O            0.99993746034990       -3.34731535112822        1.22199975347557
C            0.73373285503937       -0.79970672712085       -0.13863212833312
O           -0.62514831116302       -1.19785771794065       -0.08639405721839
C           -1.44856859895204       -0.67426735542146        0.92952922840783
O           -1.58518800939070        0.71657597228198        0.92940113839470
C           -2.29726058412352        1.27905503862609       -0.17411965941457
C           -2.44502795299004        2.77719071502129        0.13732507512186
O           -2.91562370767327        3.52168380725355       -0.95160359655015
C           -3.67557713913499        0.61588840477645       -0.36285985303490
O           -4.36803222177374        1.16500131551878       -1.45726034249149
C           -3.49918436276279       -0.90224475361151       -0.48167295409259
O           -4.70714807459107       -1.58587657320717       -0.70489220345364
C           -2.79440962839632       -1.40407922497639        0.78788570496569
O           -2.54446006728464       -2.78016573907783        0.74513760723739
C            0.99705897844612        0.58763451586190       -0.74909866399906
O            0.29042668720973        0.79358923390542       -1.94627227433934
C            2.51688332490398        0.73706101700852       -0.96204031478098
O            2.86384042968858        2.00229109198741       -1.45011922346161
H            5.31736648714966       -0.69423904999886        1.65196300132427
H            5.41304406555221        1.08563729721766        1.76530551922847
H            6.52308402182364        0.19900712358102        0.67597892068629
H            3.10729307962443        1.15383490433797        1.09745955787529
H            1.30949299871539       -0.00432714171227        1.80257024043060
H            1.89589061643364       -2.27151634723867        2.76224622226747
H            1.75284447174502       -3.47445235668048        0.60604201445335
H            0.15240236394379       -3.28808027154403        0.73175468230002
H            1.16947884225516       -1.53232555032655       -0.83295083615857
H           -0.99187327916637       -0.91489689992239        1.90477431746932
H           -1.71402853714066        1.16093057166626       -1.09826357770084
H           -1.46357718443126        3.18158393046777        0.39319110316287
H           -3.10220997358555        2.89235225166118        1.01024625452713
H           -3.74700064630149        3.11879573721496       -1.25887160664121
H           -4.29665811145833        0.83824435973183        0.51512301835853
H           -3.98049106980631        0.84310977250930       -2.28440190751895
H           -2.86358856695217       -1.13972741904054       -1.34255344200323
H           -5.39219210249041       -1.25686102589856       -0.10510752108465
H           -3.40711259320846       -1.15177823213378        1.66890657375694
H           -3.32047694399853       -3.21989648650688        0.35956712476115
H            0.63895423162897        1.36347676308194       -0.06216355592960
H            0.67881753083888        0.26347307185662       -2.65787029550359
H            2.85043146916093        0.03685451172416       -1.73779491782587
H            2.57313308890255        2.69490072046051       -0.83934358478631
