48
 energy: -84.739088382854 gnorm: 0.000688589480 xtb: 6.7.1 (edcfbbe)
C            5.41883154611092        0.64889500768899        1.32741504581516
O            4.63195882620435        0.67551455396503        0.13915833892552
C            3.27413399483189        0.49989910496074        0.33078172188080
O            3.02738704656493       -0.80985121019446        0.79463666155159
C            1.65182353703384       -1.07059762118318        1.00610698805798
C            1.52964521344224       -2.49305948440818        1.57795718303885
O            1.66077612351002       -2.53594458598290        2.97302959930331
C            0.87560297463245       -0.93716413940631       -0.31652430448156
O           -0.49122385391386       -1.29905762207500       -0.21212290693432
C           -1.28284199376015       -0.75287438247789        0.82290654254195
O           -1.39898082862053        0.62386720894622        0.82325872814267
C           -2.17314711606068        1.25009932391367       -0.28852404147597
C           -2.29544422292270        2.71896585138071       -0.07883049122672
O           -3.01197891966798        2.90943495363490        1.29926498840784
C           -3.53122509411351        0.55586488248637       -0.43643871876836
O           -4.14604855128676        1.05814390454266       -1.59325771365997
C           -3.35170705890025       -0.96577948540402       -0.53649467262145
O           -4.63239481004311       -1.55126698928837       -0.67661194294774
C           -2.64903607948326       -1.44904739729559        0.73638902147643
O           -2.44288134509882       -2.83613987721776        0.78149303306242
C            1.09234397699385        0.45983328788933       -0.93386789520004
O            0.45783568779755        0.57706434609464       -2.17657201850236
C            2.59719807244365        0.74825798310380       -1.02795922408760
O            2.77114015949765        2.07800989239696       -1.43059071806365
H            5.39746214877056       -0.34390383901659        1.77673314449223
H            5.05095984746545        1.38959910216083        2.04248751718181
H            6.42691834138062        0.89765882785152        1.00910122898086
H            2.87918702518752        1.22645173972416        1.07360090860832
H            1.25870786959378       -0.33976242417280        1.73047390987239
H            2.28156556097719       -3.11803340124983        1.08429076713186
H            0.53510382692703       -2.88318016742740        1.34943125594854
H            2.57675533116132       -2.34114893987762        3.21813525290771
H            1.27176698198982       -1.68540105035337       -1.01583046657936
H           -0.83584619633434       -1.00033319716310        1.80044735370169
H           -1.61983239587275        1.10170570072778       -1.22341712804774
H           -1.27514744685172        3.11211323109217        0.08717516279690
H           -2.41766807618665        2.73875926269791        2.05702276652404
H           -3.30902761156880        3.84195049336842        1.29399075309736
H           -4.15556746011822        0.76839446070873        0.44627033578634
H           -4.99759408629773        0.60458362099952       -1.69558215477189
H           -2.71534922771523       -1.19035959091086       -1.40003525959146
H           -4.56029235662139       -2.38284400937021       -1.16331899427823
H           -3.23840109702177       -1.12078166184180        1.60645414560975
H           -3.30685615905192       -3.27343206088342        0.84390474142121
H            0.62964669335595        1.22468452927069       -0.30253932284515
H            0.87782691382421       -0.01201674900344       -2.82239091507027
H            3.05579151578481        0.05448516397918       -1.74997466963452
H            3.71964277394165        2.25965242021243       -1.52222954928671
