48
 energy: -84.850504726057 gnorm: 0.000694610404 xtb: 6.7.1 (edcfbbe)
C            5.35930785307766        0.56249611549498        1.33667326117312
O            4.60560957292257        0.56417463075491        0.12719908363615
C            3.24484943843607        0.41305774679539        0.29469050182453
O            2.98461580113595       -0.91155582678950        0.71686661222115
C            1.61512048277756       -1.19865789663235        0.93086692158565
C            1.55572514975638       -2.67434721073158        1.36514403982029
O            2.19130205614692       -3.51023585046314        0.43895420331705
C            0.80106092912508       -0.97485378286775       -0.35654951310448
O           -0.57673619654678       -1.30183793935082       -0.22245993724453
C           -1.33240529660415       -0.80094462826558        0.84682688209818
O           -1.41581879174553        0.59522322663354        0.90931358574125
C           -2.14269072926412        1.20768836098469       -0.15973786924239
C           -2.21417561050454        2.71053609919854        0.14961577267153
O           -2.44592608048667        3.48689467443168       -0.99205957783934
C           -3.54589006758474        0.60687950338232       -0.31159358544389
O           -4.15964817213596        1.23466340152996       -1.41077877229403
C           -3.42924208902831       -0.91727074801918       -0.49189850492577
O           -4.69548907006545       -1.53519671837465       -0.57881302939731
C           -2.71839360713523       -1.45803899007273        0.75160822932854
O           -2.55298874766777       -2.84534839211913        0.73847481915120
C            1.04229042542819        0.44885844286157       -0.89842773115503
O            0.34806231888044        0.68212552960483       -2.09363239201954
C            2.55523116566995        0.68509131930988       -1.05664197522835
O            2.84872753774514        1.95306447684411       -1.56403174299607
H            5.25035911204039       -0.39000958264552        1.85747701205776
H            5.03443792762572        1.37886839603405        1.98802583447870
H            6.39054838702521        0.71182514220905        1.03148748372174
H            2.85635366511836        1.11465605738620        1.06556390783649
H            1.22955892742056       -0.54490904888123        1.72795407058614
H            2.01680329475535       -2.77089281154570        2.35572452631568
H            0.51433494183972       -2.99926369410618        1.41202379254194
H            3.10123970938519       -3.19685967875020        0.32389233086008
H            1.14407530753581       -1.70279303990007       -1.10264628236895
H           -0.88069405561919       -1.08524857274166        1.80876031291456
H           -1.60820021143029        1.06930997669614       -1.10958786121353
H           -1.25383303697564        3.03006255665410        0.55899970784059
H           -2.98807377771164        2.88780116523807        0.90938492908538
H           -3.20602360637683        3.11178734790116       -1.46762187849801
H           -4.12020339623329        0.79714314844873        0.60858364313263
H           -5.08848410536280        0.96261001711368       -1.45356027788203
H           -2.81311931636753       -1.14047434597998       -1.36973426033494
H           -4.98527866353639       -1.56717857005133       -1.50091745615776
H           -3.29442105378223       -1.15267616792067        1.64104059969123
H           -3.39867484900663       -3.24627064093405        0.47746721536109
H            0.64079545603635        1.17744482439743       -0.18359877576977
H            0.72981154613872        0.15309100543733       -2.80986364702394
H            2.97799327375896       -0.01901471209627       -1.78173037176605
H            2.43101126828586        2.64300366630194       -1.02837185920212
