48
 energy: -84.828731570694 gnorm: 0.000329125543 xtb: 6.7.1 (edcfbbe)
C            5.62885723774648        0.14452560884658        0.97090662575709
O            4.82872795656943        0.01544693395905       -0.20149023019042
C            3.46906693014442        0.09879307126601        0.01703504617093
O            3.04921569737961       -1.06566019761318        0.70104947969461
C            1.66434607372858       -1.10683692043249        0.99402316279829
C            1.43456962759158       -2.43367893369370        1.73865470999613
O            1.80177134606145       -3.53880728712449        0.96058146230682
C            0.84243393078834       -1.03838685339272       -0.30555251333147
O           -0.56073942152848       -1.14487395509945       -0.11365736207584
C           -1.22285099181920       -0.34181504245771        0.83745317711652
O           -1.10312876753230        1.03308737538160        0.61048594200138
C           -1.89191823397270        1.64067277705751       -0.35968635518885
C           -1.43684400646685        2.70621189031471       -0.99727299536267
O           -4.49079436270355        1.32439121164718        2.72297292463783
C           -3.29925041119976        1.12479741086923       -0.53127530199870
O           -3.84460604132185        1.62627383716417       -1.72284097030437
C           -3.31762792069114       -0.40792093399946       -0.49401444128334
O           -4.65328152412850       -0.84063724567753       -0.59422699494779
C           -2.67655353556634       -0.84417456852102        0.82628613458019
O           -2.74208180089565       -2.23131115628912        1.00828543368523
C            1.23778090660516        0.21304687383215       -1.11532435200339
O            0.51768877173635        0.31989343572414       -2.31093570550204
C            2.76049917532794        0.20216826023291       -1.34803784711567
O            3.19738963235359        1.29827468634408       -2.09561922217341
H            5.40328641882587       -0.65250593194647        1.68085891589096
H            5.45935781886699        1.11744517380120        1.44107117831951
H            6.65581221196244        0.06650057115714        0.62728794858029
H            3.21826096503679        0.98645440860613        0.63894081177784
H            1.40565824838719       -0.25500639421324        1.64120587216228
H            2.00443109943688       -2.40879710788188        2.67524946120047
H            0.37374831369122       -2.55324897032425        1.96385343224849
H            2.74010466427322       -3.45463493877908        0.73521764016154
H            1.07243626973107       -1.93321172783846       -0.89750062074685
H           -0.78675501001465       -0.48966889510078        1.83612466531009
H           -2.07093012401153        3.21116837339591       -1.69833092928331
H           -0.44637065885113        3.08360989664052       -0.83217771129408
H           -4.17183685897107        1.96504796238022        3.36755470534465
H           -5.42100225648976        1.17466837921899        2.92574623979600
H           -3.89559169385851        1.47310374273655        0.33163773888179
H           -4.68780045783479        1.17027735495529       -1.86933351919701
H           -2.72913829870115       -0.80207913226431       -1.33802922476118
H           -4.72162701043583       -1.71893598378829       -0.18927316964118
H           -3.22554453532724       -0.39126530508361        1.65872609093971
H           -2.14087360951358       -2.65347547760572        0.37410585454957
H            0.96721900365144        1.10744545744972       -0.54213186295073
H            0.78220172966117       -0.38277228405297       -2.92281015773843
H            3.05141306860479       -0.67729120904008       -1.93289307361469
H            2.91640069656028        2.12694802910157       -1.68166691030778
