48
 energy: -84.752870264198 gnorm: 0.000264999166 xtb: 6.7.1 (edcfbbe)
C            5.56781164793912        0.42326028795306        1.03973492393819
O            4.66125218502946        0.55004535958682       -0.05069143321731
C            3.31833696414953        0.51772865601700        0.30837046102607
O            2.99537161146773       -0.72127041145497        0.86588182128010
C            1.58236825069688       -0.80366467713495        1.22607381799236
C            1.22752901921930       -1.97454593925459        2.10164348440763
O            0.90342961777289       -3.21472368537017        1.14977878757544
C            0.79985565028368       -0.75014678893034       -0.09925826763484
O           -0.53801606261186       -1.19473791937507        0.01510420596982
C           -1.36073186909433       -0.67465554876262        1.03856601858781
O           -1.56015173229253        0.70062608233110        0.98511282045039
C           -2.29606906741367        1.16529106802227       -0.15391162233976
C           -2.54783037716166        2.66029662065841        0.08677329424220
O           -3.22250589975156        2.89215941503464        1.29549379484368
C           -3.62266894477250        0.41266957880210       -0.34022612976200
O           -4.27265117330201        0.80207299640408       -1.52516733711444
C           -3.38985223587642       -1.10461283867607       -0.33062587202988
O           -4.60569822679145       -1.81378979610951       -0.38507530575198
C           -2.65884955427552       -1.48873204081648        0.95596195467972
O           -2.29780427883354       -2.84120264696399        0.99654096233610
C            1.01229530124071        0.62498297816845       -0.74098772082016
O            0.31765208738802        0.70822454846921       -1.96223240556070
C            2.51861196340738        0.79334134291302       -0.97602136442121
O            2.73329842905609        2.09900347230002       -1.44659813716280
H            5.41047001763361       -0.52439588715649        1.55685841791471
H            5.43204926498802        1.25127229941124        1.74161573163798
H            6.55863653846380        0.45654448901421        0.59655640188568
H            3.09634519878568        1.31953124499153        1.05168481797314
H            1.37346495256620        0.11018540663283        1.81189399106940
H            2.16507892085450       -2.30168767372310        2.58184702302187
H            0.02823595500900       -2.98042922456498        0.75671655071711
H            0.74249070142347       -3.95032283315902        1.77514224217502
H            1.24428699376877       -1.48804026722546       -0.78010695519512
H           -0.87082743547922       -0.85212280804375        2.01126496133558
H           -1.68796248739316        1.02907671923181       -1.05866425239285
H           -1.58832147995873        3.19177169919895        0.07298922396294
H           -3.19116304358159        3.04849328833440       -0.70449511072999
H           -2.69532037618039        2.50858072745557        2.01170196019112
H           -4.30901511145643        0.67931939147760        0.47201165268684
H           -3.67726334618526        0.67333071077911       -2.27918739423501
H           -2.75079177951546       -1.37997216240201       -1.18572406737486
H           -5.19389603975494       -1.36672753123804       -1.01236018177100
H           -3.29560375899732       -1.22996300664054        1.81435182398456
H           -3.08599428334253       -3.37287791634693        0.80418821116296
H            0.67126041468381        1.42055875002155       -0.05955139307854
H            0.69515233375513        1.44426648716063       -2.46972463949539
H            2.84387679372638        0.05311977498768       -1.72362282461747
H            3.68287175407130        2.23202918318533       -1.58372595774568
