48
 energy: -84.853851615873 gnorm: 0.000855856403 xtb: 6.7.1 (edcfbbe)
C            5.46787810326548        0.61544905104034        1.25724978033420
O            4.64307207933058        0.65136378891262        0.09619484871244
C            3.29073083961154        0.51088643303658        0.33338309552151
O            3.03621844150956       -0.79424827278187        0.81560314559637
C            1.66623100462361       -1.06611130047378        1.05320805357612
C            1.57342446234026       -2.49106991968651        1.62618457996012
O            1.71571203297826       -2.52662336433226        3.02102836184649
C            0.86544635466542       -0.93495262723885       -0.25623323939218
O           -0.49016213238641       -1.34194836324699       -0.14327479787385
C           -1.29273292404861       -0.84867288289215        0.89846042126498
O           -1.45486678853586        0.53981732429254        0.90838167710946
C           -2.22032762735340        1.08916259952223       -0.17126455498230
C           -2.40133691750480        2.56966538064600        0.18095975607473
O           -3.09040611510669        3.21366636968372       -0.86302843196838
C           -3.57503713710276        0.38828340342096       -0.35342432817174
O           -4.21744393731866        0.78728261892350       -1.53791547815585
C           -3.37262104836674       -1.12929654929226       -0.43869958869538
O           -4.59928929405653       -1.81378219632213       -0.50172710118230
C           -2.63406494987043       -1.59203734038842        0.81536043743168
O           -2.38373017242861       -2.96741438383866        0.83218096471562
C            1.05083095933613        0.48834325451764       -0.82029921869296
O            0.34277895822804        0.69444910358175       -2.01166951804836
C            2.55764156913938        0.75642365665677       -1.00011708773612
O            2.81309359619427        2.02745994548007       -1.52048664539375
H            5.44189615965073       -0.37414064387576        1.71431414181068
H            5.14223383421787        1.36828636653895        1.98052373548503
H            6.46934739021321        0.84128522437136        0.90316668373207
H            2.94254849857523        1.24358787690994        1.09634812130285
H            1.27807285756518       -0.34445626070725        1.78971675541403
H            2.33423339514097       -3.10214336849277        1.12946539755909
H            0.58554424397580       -2.90250977673378        1.40698576777701
H            2.63074524734741       -2.31915103435502        3.25796815691589
H            1.27188669540188       -1.65439876067281       -0.97767814934274
H           -0.83425582428080       -1.06892008203841        1.87391589086991
H           -1.66565668247286        0.99697899916676       -1.11480083642696
H           -1.40894213690729        3.00637705856796        0.33348207835168
H           -2.96092168718012        2.63234056491615        1.12344676515446
H           -3.14045501267053        4.16292468842826       -0.68337909379260
H           -4.21757357143116        0.60253982439813        0.51829893588595
H           -4.13740510646590        1.75304677708839       -1.62472180397755
H           -2.75816027295919       -1.35839253933522       -1.32155475573252
H           -5.12657042250446       -1.42039950648507       -1.21298504392626
H           -3.23226883270417       -1.30385576547689        1.69591890060773
H           -3.19243022353622       -3.42086465797100        0.54340794932356
H            0.63510717293550        1.21263928898711       -0.10952950810662
H            0.71525107260181        0.15065969813446       -2.72148028156463
H            2.97925059656622        0.05720209124165       -1.73059711545316
H            2.46351225867480        2.71376118861912       -0.93369784604564
