48
 energy: -84.630897960099 gnorm: 0.000674053911 xtb: 6.7.1 (edcfbbe)
C            5.55573243591557        0.21230382244617        1.07366151356104
O            4.66345328018388        0.30257394372228       -0.03104448839832
C            3.32188438327525        0.34785374756486        0.32190107464267
O            2.93691047120319       -0.90472550313706        0.80754105657579
C            1.50829057558872       -0.95447711613926        1.16604766792320
C            1.10762815968865       -2.12889960989551        1.99821373003469
O            1.06330385469263       -3.39828871104828        1.14290182084957
C            0.77092161799408       -0.83182652939144       -0.17771577902339
O           -0.59101266747319       -1.22837983200740       -0.15578672561619
C           -1.42182190817703       -0.69995602776425        0.86742264568803
O           -1.54791271059724        0.67538836112742        0.88307307349626
C           -2.35596456055902        1.33278039873356       -0.16059726705476
C           -2.68497406974643        2.74170766996342        0.23187518434117
O           -1.33422293740168        3.58081701255176       -0.01544453261009
C           -3.67934420492777        0.59927863706156       -0.41633092352563
O           -4.19965628421729        1.10290007476596       -1.62031290774946
C           -3.49373478807786       -0.92026407251000       -0.50573508151458
O           -4.72630878024014       -1.58419609136880       -0.68364723724846
C           -2.76635222910340       -1.42770332031308        0.73807150522054
O           -2.52432077137746       -2.80637876356813        0.69034309329786
C            1.02267620188791        0.54998945438887       -0.77736978196282
O            0.44560075202834        0.66659929806911       -2.06279168443091
C            2.53927295982422        0.76583702352976       -0.93438755263497
O            2.83852925820618        2.11347651358967       -1.17497211976424
H            5.34885419515724       -0.68491638868760        1.66087298917242
H            5.46030889946500        1.09753365833361        1.70943398291579
H            6.54952312585009        0.16297765525239        0.63887773275018
H            3.14967201696530        1.11684258399206        1.10773650491190
H            1.31900174877498       -0.05589075451927        1.77592961932664
H            1.92212890481662       -2.33210340371439        2.71061026958966
H            1.82755171928644       -3.49525425147135        0.53512638774270
H            0.22320118182352       -3.34548488100825        0.64061309024633
H            1.22467708526095       -1.55123017752755       -0.87620480288029
H           -0.95905225203733       -0.96461270576496        1.83496005115307
H           -1.78835345651833        1.31884691856915       -1.09928977121941
H           -1.31106240871015        4.26670519882550        0.67869187005697
H           -2.76081648339745        2.74572206736616        1.33487775109564
H           -1.49956173249216        4.02901919480142       -0.87157263090081
H           -4.36517212396616        0.82454830360793        0.41932176426993
H           -4.98993888555850        0.59217454751201       -1.85580677068582
H           -2.90209464160229       -1.16546937395559       -1.39375258712802
H           -5.31450571561147       -1.37957663379951        0.05916121517499
H           -3.36268751258865       -1.17183679596117        1.63105201862600
H           -3.29947296356385       -3.23910787188569        0.29517618557469
H            0.61665598512801        1.32912445804352       -0.11570352433267
H           -0.28000827672405        0.02871154108595       -2.13229355920028
H            2.89626475698893        0.13464513117859       -1.76199834220148
H            2.43132080372478        2.37134565379423       -2.01687370254320
