48
 energy: -84.854959729399 gnorm: 0.000398698471 xtb: 6.7.1 (edcfbbe)
C            5.58800108437981        0.50337261020744        1.13579333106876
O            4.70918814103888        0.53750901907759        0.01558150979219
C            3.36572910250642        0.46928368505677        0.32625085946346
O            3.07415112865248       -0.84057617345748        0.77311212854464
C            1.70373038110576       -1.07380263185716        1.04568002063088
C            1.58144227744885       -2.50694148377504        1.59337915255788
O            1.71653086702979       -2.57002647193516        2.98782638100376
C            0.88266706760946       -0.89260585692059       -0.24295268217259
O           -0.47984202286355       -1.27417821300544       -0.12370600390307
C           -1.26605619622396       -0.79942263030612        0.94145888193755
O           -1.40638535917191        0.58738533116722        1.00374372160243
C           -2.13696954570763        1.18973167693391       -0.07539155238611
C           -2.33434863181534        2.66504011389567        0.30301602176112
O           -1.12119680135913        3.34850421579344        0.47773428575093
C           -3.49535430787229        0.51744635678586       -0.31871722201143
O           -4.13876349462804        1.04141061097652       -1.45144305778241
C           -3.33074221220761       -1.00547720270953       -0.43279985588266
O           -4.57728508090898       -1.65230897806214       -0.52780170361749
C           -2.62267274265328       -1.51128432380379        0.82501031192134
O           -2.39966435703605       -2.89160160053319        0.81209171512289
C            1.08457949907462        0.53032874855361       -0.78559134438551
O            0.41284969191187        0.73349425523614       -2.00405768892023
C            2.58536955569168        0.82732735417334       -0.94584955540044
O            2.80049482542206        2.18973835514569       -1.19435861954029
H            5.52148972557702       -0.45864667749088        1.64570037933672
H            5.34885394595015        1.31258397306636        1.83113658330987
H            6.58287639765726        0.64375642563846        0.72353636516892
H            3.10186542607597        1.19625189574377        1.12256694878704
H            1.35736608108249       -0.35504831342684        1.80480327446611
H            2.33369900271429       -3.12261578502321        1.08900489312080
H            0.58746949844234       -2.89798772558065        1.36423778314032
H            2.63171217496896       -2.37414093840631        3.23338481633248
H            1.26694737642970       -1.60560251880866       -0.98458236039370
H           -0.81062759472866       -1.06780073058553        1.90570934974461
H           -1.53759526208457        1.12257691126475       -0.99372282174233
H           -2.86249118795878        3.16936002817468       -0.50757053009075
H           -2.94219693884980        2.71402001614641        1.21425534871684
H           -0.68704362635898        2.99910344349446        1.26740261545961
H           -4.16778885363085        0.72804642730989        0.52151000544331
H           -3.55265683258045        0.97482740846677       -2.22089411817834
H           -2.70661756205688       -1.25232171928178       -1.30561600000213
H           -5.14003719834508       -1.15191190727648       -1.13887019332340
H           -3.22735734603406       -1.22964856602225        1.70242730236761
H           -3.22188793326425       -3.32435025407376        0.52977775509908
H            0.66253919131501        1.26452774632065       -0.09158102860032
H            0.70054886670046        0.07108168464167       -2.65109822126997
H            3.00318780119005        0.21390287749575       -1.76008406732791
H            2.21512702124749        2.47332969042866       -1.91560806523671
