48
 energy: -84.748662053656 gnorm: 0.000453656722 xtb: 6.7.1 (edcfbbe)
C            5.33933240905920        0.53764314273284        1.44289812033633
O            4.57929616023635        0.64937542108149        0.24186893466294
C            3.22242922254018        0.43826725639039        0.39305377788526
O            2.98622323813118       -0.91780300933590        0.70425584320556
C            1.61560943758501       -1.22388030365987        0.87918886897327
C            1.55286185504223       -2.71964091455378        1.23270646965606
O            2.19684223664040       -3.50779240796832        0.27108096662529
C            0.80636613772977       -0.93605944513399       -0.40159016201484
O           -0.56614571280560       -1.27397596065424       -0.27936778154272
C           -1.32427298415931       -0.81698216013644        0.81751601112920
O           -1.41173352638568        0.56158235147273        0.92193206535852
C           -2.24773016033283        1.24098322974915       -0.12190740568925
C           -2.53635698865690        2.67172878301092        0.18015506202794
O           -1.28133313625340        3.53470868300269       -0.01885603785207
C           -3.61229803474421        0.55231707410727       -0.24041929424844
O           -4.34165609400493        1.09654230849996       -1.30945173867494
C           -3.44865092569052       -0.94834484670102       -0.47392694914388
O           -4.68883913577473       -1.60845479410421       -0.56583712738900
C           -2.69183759401165       -1.50915051762054        0.72561416862530
O           -2.48958073072497       -2.89208185071662        0.67032260243495
C            1.04331290985750        0.52142432907340       -0.83228774581733
O            0.39839786066321        0.77530424703932       -2.05234204289238
C            2.54501179689580        0.79697725518232       -0.93551373874095
O            2.69344454130565        2.15567872961834       -1.24871574001863
H            5.25398397196928       -0.46575130212401        1.86060505319637
H            4.99635262500935        1.27239218510261        2.17653792643411
H            6.36590865478386        0.74138056409675        1.15400837676074
H            2.81060651280694        1.07035817525161        1.20935561862286
H            1.21666155286229       -0.61883887580880        1.70693817329162
H            2.00408696969502       -2.86976044431926        2.22179772762746
H            0.51036067071396       -3.04380377958153        1.25172961744662
H            3.11077835810483       -3.19584489803238        0.18507907750187
H            1.14991851319404       -1.60279918253558       -1.20012271598525
H           -0.85454797762049       -1.14112144545471        1.76219179385369
H           -1.72276000786726        1.10567125028306       -1.07752600109464
H           -0.45774783996444        3.10132787819590        0.27943603132540
H           -2.72635367031367        2.76797314040371        1.26079138780390
H           -1.22560648653164        3.74534518673204       -0.97282905856839
H           -4.16782679216792        0.69570134089925        0.70297479824267
H           -4.26623961584021        2.06654908749592       -1.23469115508542
H           -2.85654308268751       -1.11796959590985       -1.38568459842860
H           -5.24086059589577       -1.11128368217191       -1.18854487356868
H           -3.25625760168073       -1.24876672072955        1.63832771790089
H           -3.31143872297593       -3.29580942345429        0.34691721579814
H            0.63453143542850        1.18023528765337       -0.04885090273353
H            0.89663706709423        1.46364923328582       -2.52327308313602
H            2.98460288427475        0.15709655922097       -1.71367233660249
H            3.63534239438379        2.37167277306691       -1.31995197255538
