48
 energy: -84.746426446323 gnorm: 0.000682363747 xtb: 6.7.1 (edcfbbe)
C            5.56919855364827        0.29371028774865        1.15776662334990
O            4.69259419042316        0.47124268081572        0.05040812463206
C            3.34033246915522        0.44178282619234        0.37775389544596
O            2.98395651318355       -0.82825531815045        0.82935990913265
C            1.54556771599767       -0.88623809114564        1.17298290666377
C            1.12296416690176       -2.05689914028412        2.00107431324812
O            0.88953919809516       -3.29877305306242        1.13996208899268
C            0.82326558127941       -0.76049535866895       -0.18105079345893
O           -0.52120587278590       -1.20420650516796       -0.15941488790667
C           -1.37886744729105       -0.72632242104841        0.85480549883861
O           -1.55216524757599        0.65781788555964        0.85205803402797
C           -2.25236644487684        1.14593431088946       -0.29574552594193
C           -2.30961190928982        2.67953816511269       -0.20673263546250
O           -2.20438203614779        3.28816344794890       -1.46781984113469
C           -3.63667447220402        0.49515275964019       -0.38800533203722
O           -4.42067664459428        1.00103021941318       -1.43909290389634
C           -3.45696865667424       -1.02769582290550       -0.52107154420201
O           -4.69595762912563       -1.69446284478146       -0.56906547120569
C           -2.68145338075745       -1.52629770005686        0.70190093330562
O           -2.31770882589263       -2.87578096921424        0.60664825703080
C            1.06080369222504        0.65122566487682       -0.74485785979543
O            0.38659675102937        0.87304343369235       -1.95673286721417
C            2.57812648761742        0.84729199228555       -0.90118231634584
O            2.82042342411453        2.19206195385505       -1.21697978885298
H            5.38430726012989       -0.66735428416740        1.64049780610994
H            5.42893108488885        1.10003985978062        1.88390318209823
H            6.57196269017244        0.32537235452309        0.74211323539002
H            3.11842227765126        1.18853468360310        1.17457247781354
H            1.35989305605202        0.01422467596372        1.78099040029556
H            1.96433006880125       -2.34385267137079        2.64811937519770
H            1.58420923874909       -3.47426679052785        0.47083216482135
H            0.01558342387133       -3.16520824001861        0.70572749340023
H            1.29811955729697       -1.46127503479494       -0.88231179050933
H           -0.91983438876753       -0.95646124090500        1.83264039100838
H           -1.68202313950412        0.87602154781939       -1.19774376028360
H           -1.51039853281629        3.00767446011722        0.46774995493198
H           -3.26908659685388        3.00087301803696        0.20232779159960
H           -1.32168601651044        3.12481351459160       -1.83156118345722
H           -4.19713854955809        0.69755877776616        0.53378827629878
H           -3.85891277312555        1.23677913691380       -2.19111064767148
H           -2.87412867148623       -1.25382004257544       -1.42815973496731
H           -5.29978786336091       -1.17224957833541       -1.11986260911986
H           -3.30004571607099       -1.35040398669861        1.59378627122623
H           -3.12175494363404       -3.40015848164242        0.46715618450290
H            0.67513264901379        1.40530470401796       -0.05178528395434
H            0.76722926065985        0.32046604124080       -2.65652051382441
H            2.94273319400384        0.18967219737973       -1.70787237350634
H            3.77328223878903        2.32378495116208       -1.33427592544705
