48
 energy: -84.752248921990 gnorm: 0.000608677000 xtb: 6.7.1 (edcfbbe)
C            5.36242664077746        0.66441576985071        1.49563966201347
O            4.57232100943789        0.80149736990599        0.31745413877793
C            3.22841201820175        0.52567483465483        0.48534870092247
O            3.05603904263839       -0.85406914946071        0.72441875033584
C            1.70339726787370       -1.21568344124622        0.92688887638646
C            1.70478927033883       -2.71615748598502        1.26701107331515
O            2.35239736756442       -3.46937358052375        0.27960772245512
C            0.86619965468942       -0.94863167204491       -0.34104753977586
O           -0.49987681436061       -1.32916095039275       -0.19966677270482
C           -1.24090453368851       -0.88294977481300        0.91508176461973
O           -1.34159634151192        0.49746114291316        0.98502456321470
C           -2.15455558996103        1.06416213708126       -0.15304778323933
C           -2.25575040307348        2.53818912640819       -0.24331277129390
O           -0.99258226119114        3.13586945742934       -0.86740027335361
C           -3.56879690163582        0.48214813166794       -0.05539830433638
O           -4.38415867776373        1.00797341246849       -1.06864023144870
C           -3.49584486586145       -1.03833234934971       -0.20891559666485
O           -4.75936852903439       -1.65196359772318       -0.09620957169298
C           -2.60795184473848       -1.58653305345650        0.90562742809266
O           -2.39474379985344       -2.96721071096401        0.81813392478156
C            1.02935283998606        0.53505511995435       -0.73081338968405
O            0.35453394066501        0.87901865287116       -1.91196128444608
C            2.50561785839380        0.94546243178640       -0.80339266984458
O            2.52938108271397        2.33794360711028       -0.96138453801699
H            5.33181081105634       -0.36173227505935        1.86315217301012
H            5.00307808087284        1.34436091083224        2.27314594123228
H            6.37248466798874        0.92986821035237        1.19833117524480
H            2.80970338794875        1.09311208438757        1.34457731970304
H            1.29806613716436       -0.63319524359665        1.76663638929219
H            2.18482473349580       -2.85948638591342        2.24315895354925
H            0.67537587750831       -3.07841300010028        1.30875801431035
H            3.25802114951009       -3.13595548824443        0.18672404854826
H            1.22492133113941       -1.60326313944387       -1.14270692933948
H           -0.73555867617807       -1.18660394843779        1.84725487836495
H           -1.70870241551552        0.65601330301118       -1.06821178974669
H           -0.23661584215141        3.22492258387999       -0.24932383430493
H           -2.31137439539517        2.98854086164432        0.75512177042556
H           -0.70203368072399        2.52292442404126       -1.58455992955978
H           -3.99565878323371        0.72045562665262        0.93434482342918
H           -4.07558543555051        1.93240822839801       -1.20305297098544
H           -3.04597080752605       -1.28028588077683       -1.18408815785270
H           -5.37827193229843       -1.15644033592014       -0.65389716105377
H           -3.09534341374382       -1.33913739551493        1.86519686571439
H           -3.24816555615573       -3.38396164642182        0.61694375853365
H            0.56694986924789        1.12751592733469        0.06469249387259
H            0.72224420230956        0.39770293797916       -2.66767772872476
H            3.00303171989913        0.43744324384232       -1.64175275936361
H            3.44377552258382        2.64089083833199       -1.05887929306148
