48
 energy: -84.854099825941 gnorm: 0.000851059990 xtb: 6.7.1 (edcfbbe)
C            5.34960981434536        0.56994127642618        1.26648072455339
O            4.54083609707832        0.64438175840362        0.09478319458465
C            3.18735677888210        0.46553033671183        0.31403241698988
O            2.95577599211400       -0.86104608527401        0.73768632504068
C            1.59396918405264       -1.14039496201102        0.99966382014059
C            1.57566668226110       -2.59368067373342        1.52112961179906
O            0.35890467862619       -3.00051370144662        2.08369243662805
C            0.76695793391869       -0.95695197013252       -0.28673644796776
O           -0.60587960698139       -1.29052289776132       -0.15038331135607
C           -1.37256963038841       -0.76548431248733        0.90723341603590
O           -1.47214988690033        0.62813591695667        0.93818629343268
C           -2.20966498124868        1.22735082411178       -0.13277281605714
C           -2.31109762287142        2.72211538784562        0.21425187355621
O           -2.81931265019493        3.49913272904702       -0.83337134063465
C           -3.60621219950768        0.59484444539073       -0.29275844543328
O           -4.31533321207469        1.17248794824927       -1.35933311830388
C           -3.46471903650658       -0.92559359030732       -0.43981837449939
O           -4.68902026292329       -1.58350432508118       -0.64343839939849
C           -2.74317962403396       -1.45379305020071        0.80779092052860
O           -2.54155932645907       -2.83841874638830        0.76845369631842
C            0.97256717976515        0.46362930665053       -0.85923013807971
O            0.26799183337527        0.63175481186636       -2.05909960968557
C            2.47088720928077        0.74691903942537       -1.01710315502120
O            2.63388266326327        2.08277625232839       -1.40407873585439
H            5.26766044485003       -0.41674988641835        1.72372797349577
H            5.04640676878982        1.33760100612098        1.98378649183292
H            6.36534176119744        0.74851663929566        0.92638498937872
H            2.81262352861523        1.16675315576944        1.09036791605865
H            1.22224074440441       -0.45335462776497        1.77542021609226
H            2.31755223397258       -2.65924737900190        2.32085876694644
H            1.88608703508243       -3.25416213059049        0.70440872906407
H           -0.29917198264524       -3.17139212026868        1.39125405458701
H            1.12167330205198       -1.68223106517218       -1.03046958451768
H           -0.91903624942772       -1.01879569802051        1.87613203367594
H           -1.66047739095029        1.11402531146021       -1.07763099529681
H           -1.30863073561993        3.10115744518242        0.42537961734349
H           -2.92104231230749        2.83104518024764        1.12190761622048
H           -3.67369937366045        3.12446954952063       -1.11087518110378
H           -4.20061717633178        0.81483108628081        0.60418266502515
H           -3.93986231903006        0.87512039791357       -2.20120945115804
H           -2.85062016941852       -1.16384974728748       -1.31604476212662
H           -5.36293767931135       -1.23145794327061       -0.04369707424640
H           -3.31994310859935       -1.18119325334953        1.70733493526437
H           -3.31547272769260       -3.24719441361476        0.34536236957430
H            0.55809118578639        1.20442971161068       -0.16776432444659
H            0.70114467118718        0.13743747467082       -2.77238458690518
H            2.90161232615074        0.06435484739803       -1.76689317995606
H            3.58109523150489        2.27529270680370       -1.48200409519193
