48
 energy: -84.749613855039 gnorm: 0.000755738210 xtb: 6.7.1 (edcfbbe)
C            5.43039065099262        0.56914561907096        1.40437413701504
O            4.60523004998733        0.79909691254666        0.26574170500213
C            3.26268593694206        0.52890873385427        0.45966600748547
O            3.08767951533755       -0.84372361534041        0.72428374615678
C            1.73830788564547       -1.19600507925016        0.93778395506048
C            1.71428107958037       -2.68284677160051        1.31183067670074
O            2.18601322983930       -3.43061019675263        0.21988241039918
C            0.89144710744367       -0.94578181150680       -0.32784247069821
O           -0.47266162700198       -1.32792324299073       -0.17178703837603
C           -1.21009310760670       -0.87030999269852        0.94063838374771
O           -1.31875548730556        0.51025862343327        0.99358906933949
C           -2.13669449821772        1.05342897257702       -0.15143948150492
C           -2.25098552639310        2.52488764212421       -0.26496291799401
O           -0.98893732510657        3.12239362208344       -0.89451275035187
C           -3.54639873896546        0.46006668222595       -0.04872813482137
O           -4.36257111482308        0.96328678651312       -1.07231067584292
C           -3.45893937287141       -1.06213171923762       -0.17983094047814
O           -4.71720022296431       -1.68670473257142       -0.06669494463559
C           -2.57183672996965       -1.58376942355767        0.94692043845993
O           -2.34917893335553       -2.96483609758564        0.88697943945339
C            1.05034498576863        0.53359038531547       -0.73228368538079
O            0.36471915741661        0.86609784296450       -1.91118205159283
C            2.52654228674235        0.93606580483668       -0.82498909718234
O            2.55901060202167        2.32602480137052       -1.00661384885108
H            5.40231522490635       -0.48331119031366        1.68845698371485
H            5.09860651592723        1.18806335050232        2.24287782624745
H            6.43212811676803        0.85312859913515        1.09623233987253
H            2.86100399413205        1.11270638046013        1.31862787558298
H            1.34189222782920       -0.59508148480394        1.77101209733612
H            2.35835743218844       -2.82508729773830        2.18871814375868
H            0.68197626384238       -2.95963571628344        1.55890224486662
H            2.11886707613013       -4.37343047555399        0.42865434732505
H            1.25430173741639       -1.60762822622847       -1.12043615431842
H           -0.69796901603212       -1.15441994107848        1.87557357650415
H           -1.68667990186735        0.63680851380005       -1.06072629358545
H           -0.24074128197499        3.23542179384757       -0.27143341002569
H           -2.31262467834990        2.99082502188112        0.72616300713085
H           -0.68439043475553        2.49440588810717       -1.59326159935744
H           -3.97877326948011        0.70880893127277        0.93612465799102
H           -4.05571726569388        1.88484706572470       -1.22689593768635
H           -2.99982779222166       -1.31345148895500       -1.14817948170705
H           -5.33374556527391       -1.21121912361524       -0.64409299443661
H           -3.06135435860010       -1.32160510195862        1.90139117694660
H           -3.19609610641639       -3.38949128234656        0.67392028707564
H            0.59635898028713        1.13558439485662        0.06107155825199
H            0.73442188610087        0.38593209580689       -2.66671285293854
H            3.01245459327893        0.40947369524338       -1.65888624938334
H            3.47705179341357        2.62036470062413       -1.09854814873251
