48
 energy: -84.854650838018 gnorm: 0.000306889719 xtb: 6.7.1 (edcfbbe)
C            5.47013430408586        0.57866039647377        1.27833381579333
O            4.65870056293031        0.65257547585450        0.10944395746934
C            3.30569973948234        0.45523875495207        0.32052256347727
O            3.07818436063324       -0.88314643100725        0.70874738641124
C            1.70976129206414       -1.17098650489148        0.94103810931047
C            1.61672237212777       -2.63768492771843        1.39256111860505
O            1.85039354146770       -2.80207634290016        2.76516207689732
C            0.89137262988636       -0.93385858659672       -0.33965621742182
O           -0.47550715221667       -1.30432621971265       -0.22533184939633
C           -1.24100026139779       -0.85513601539324        0.86467414300677
O           -1.35478770255541        0.52976272482153        0.98116074848499
C           -2.04965763694415        1.18488577787210       -0.08421029179254
C           -2.13156950844268        2.66270659147800        0.29649240826749
O           -0.84733253758919        3.23026496920141        0.18645684069743
C           -3.44440958792373        0.58583162117880       -0.31350962869858
O           -4.09219510262878        1.17163759658170       -1.41335821723140
C           -3.33445143828913       -0.93705377664178       -0.48677362792631
O           -4.60376484112736       -1.53890466653923       -0.58342361518804
C           -2.62142358304158       -1.52123059213963        0.73423512320960
O           -2.44859436943173       -2.90648499575456        0.65628841557967
C            1.09524362495929        0.50174297305945       -0.86815414852660
O            0.40894192585737        0.69326382099026       -2.07630214606147
C            2.59832403713161        0.77136492972748       -1.00781615601360
O            2.78559590471679        2.11000936851681       -1.37073908021493
H            5.45956013544789       -0.43154335874374        1.68763353617339
H            5.11655331758890        1.28841441161528        2.03100686862313
H            6.47136922656611        0.84198827872100        0.95001213537503
H            2.92149160716114        1.13342440617542        1.11195091823375
H            1.33641465557956       -0.50765527872224        1.73738014525474
H            2.32734383909193       -3.21928346844272        0.79497498101264
H            0.60581132838201       -3.00655684811451        1.20565795243615
H            2.77667915695877       -2.59986663496172        2.95830093429265
H            1.25911426407640       -1.63058690120767       -1.10551154440488
H           -0.78754218964224       -1.17284462405583        1.81442685696156
H           -1.46829651301724        1.09162561208773       -1.01143650266152
H           -2.84015671738156        3.15222735561725       -0.38170407003474
H           -2.49964716258389        2.72925703616677        1.32778812055495
H           -0.89569631663739        4.17430088313023        0.39360852661167
H           -4.08601610865448        0.79422181676572        0.55077046099158
H           -3.52218070287670        1.11515707767891       -2.19581802421575
H           -2.73399307641329       -1.16692797291249       -1.38095484109992
H           -5.15794964049766       -0.99871063753527       -1.16806133009112
H           -3.20265878113051       -1.25881645146961        1.63351665645942
H           -3.29261338688419       -3.29532966404142        0.37429356934634
H            0.67689284760350        1.23705107355872       -0.17317534578248
H            0.83313889020966        0.18268654405687       -2.78301953887706
H            3.02519742670980        0.09666181142416       -1.76812245598479
H            3.73701533215052        2.29439855154467       -1.41102576680822
