48
 energy: -84.748888217644 gnorm: 0.000797895875 xtb: 6.7.1 (edcfbbe)
C            5.33681465062772        0.43126811648224        1.34439473906236
O            4.55021484539358        0.35568889479731        0.16113322872525
C            3.18051309938747        0.33210785959237        0.38171348121638
O            2.83060568441088       -0.93203307514509        0.86554320034191
C            1.40298463836136       -1.11274054041322        1.11613944608488
C            1.13576342457191       -2.42802228942304        1.78574249063707
O            1.76953494290994       -3.48826245267634        0.85210954315852
C            0.67386112702841       -0.95949459704514       -0.23129957449906
O           -0.70868369571602       -1.28433642658581       -0.17973411592713
C           -1.50530392793665       -0.72117349285662        0.82720402100697
O           -1.57171745304348        0.68016276255395        0.82952530135398
C           -2.23923559988760        1.27106956293571       -0.28569242344714
C           -2.28362182675926        2.78164376903193       -0.00812282220855
O           -2.66464444033083        3.52954832946638       -1.12887683090669
C           -3.65973002132514        0.70604357167365       -0.48208187568550
O           -4.27109273941051        1.28304379375531       -1.60884242524848
C           -3.59643812932407       -0.82155194007092       -0.55861349328668
O           -4.90035020168277       -1.32997967115187       -0.67762061032841
C           -2.90489669155915       -1.35163892653383        0.70297511864841
O           -2.86935700648173       -2.74683026554887        0.61091337213348
C            0.96603668433107        0.42034964144066       -0.83066766841977
O            0.35232213935973        0.60876906069966       -2.08435868560810
C            2.48391587451809        0.63718754698692       -0.95015121858914
O            2.77323380647619        1.96650675020781       -1.29203155421431
H            5.13794578651362       -0.42240148417117        1.99559924160298
H            5.12432385098778        1.35995184427497        1.88217122509879
H            6.36867694942281        0.41922044076816        1.00622355448294
H            2.88507573299467        1.11107930588625        1.11777194656445
H            1.07907915397590       -0.30578874742950        1.79252493860425
H            1.77080550581980       -2.44330013133046        2.69447111852623
H            2.72685548709151       -3.31791690505042        0.73037162945003
H            1.62534410518806       -4.35426832793168        1.28479146859927
H            1.06644527874914       -1.72269365966692       -0.91651837148579
H           -1.07589613533725       -0.97051485409949        1.81078432896699
H           -1.66311888899972        1.09495573276473       -1.20550443402576
H           -1.28321459190049        3.12062479569722        0.27147635827967
H           -2.95904872375475        2.96403534632271        0.83901919103271
H           -3.50557631684663        3.16665470962703       -1.46080671207406
H           -4.29038088537740        0.98537267955111        0.37052968698695
H           -3.97233921748800        0.83062554003855       -2.41120479237303
H           -2.98857979625246       -1.12451365821732       -1.42635918588578
H           -4.85778468592487       -2.28998108521245       -0.54695784033838
H           -3.48936575148182       -1.03253636249442        1.58167772083241
H           -2.27364879513412       -3.10816346735647        1.28304606916913
H            0.55998235712572        1.20206804942808       -0.17908156468269
H            0.56802473754514       -0.13560299532557       -2.66784697904417
H            2.90396488250555       -0.05106718829115       -1.70181859417017
H            2.20247579111588        2.22161939748878       -2.03590866274243
