48
 energy: -84.718738807672 gnorm: 0.000863631000 xtb: 6.7.1 (edcfbbe)
C            5.38308536670546        0.38801868750157        1.82589402070073
O            4.70915041512024        0.42757834603410        0.57235820236842
C            3.32171579706001        0.40281140472541        0.66051415668191
O            2.90205882902010       -0.85813452538446        1.08697059974430
C            1.44396729189896       -0.96347184259145        1.21259191034292
C            1.02437082528923       -2.23054454865894        1.89819344345733
O            1.70598309009060       -3.40447629227960        1.17850461565864
C            0.87241667896035       -0.79188750578094       -0.20919431227015
O           -0.50892554264191       -1.09493831430739       -0.31591070222865
C           -1.40583299828179       -0.52016609975889        0.59743024635981
O           -1.42742055924472        0.88493204399299        0.57413403125813
C           -2.08308036368995        1.52143222417878       -0.47070484773564
C           -1.64097578376450        2.68239398098398       -0.92542607815907
O           -4.93715602982901        0.32884348070980        2.51308888117980
C           -3.37489354620950        0.89753907236242       -0.94220061517931
O           -3.77731602362495        1.46797099602440       -2.16006937557023
C           -3.23925996924452       -0.63185694130550       -1.05962408837304
O           -4.44259475461251       -1.19375317588701       -1.51442364200723
C           -2.78298190771094       -1.14778791484147        0.30555948603118
O           -2.72916545892240       -2.54526562769855        0.29366358907722
C            1.24796707127332        0.59519306436789       -0.76440400929621
O            0.71846900905541        0.81381047947340       -2.04262995405653
C            2.77857829146515        0.74043329186358       -0.73975789539737
O            3.11303302220169        2.05519115743391       -1.09359229883726
H            5.11948930173681       -0.51613489502606        2.37666098436427
H            5.12375448955463        1.26758069298461        2.42238451872446
H            6.44210536116640        0.39121816251821        1.58561827852224
H            2.96121228184219        1.17358600737050        1.37698875441234
H            1.10358834395413       -0.12115352465213        1.83385630729181
H            1.52461976196565       -2.24456357257963        2.88285214393534
H            2.60821593364985       -3.15151162816921        0.88988188209467
H            1.14990193288406       -3.62871024247704        0.40640089209815
H            1.32931896962052       -1.53827607862389       -0.87271843766322
H           -1.08602652362960       -0.77274106733763        1.62136825014048
H           -2.19466657208475        3.19407318435522       -1.68773463208815
H           -0.73166959214091        3.12547370482562       -0.56590275626792
H           -4.68037956029012        1.04464519471554        3.10362276197214
H           -5.64897766068083       -0.14665085789277        2.95747031669275
H           -4.14447756412455        1.10083417842600       -0.17145647689572
H           -4.38283949119644        0.83863887059103       -2.58667747133106
H           -2.48653778538775       -0.88372491965578       -1.81307128055467
H           -5.06667670572387       -1.26647444192038       -0.77788059295103
H           -3.48629057178074       -0.78529881780620        1.07330177196185
H           -2.37729082944794       -2.86090725292831        1.13911464297514
H            0.81650166160592        1.37985797000212       -0.13627106809281
H            1.09504327137226        0.17640247873223       -2.66820908968486
H            3.22613219796161        0.02442049990089       -1.44821827718732
H            4.07840736848024        2.14459397771184       -1.08841245754588
