48
 energy: -84.645412794207 gnorm: 0.000537190721 xtb: 6.7.1 (edcfbbe)
C            5.52189333532271        0.28737695192341        1.19074617638825
O            4.67413449798450        0.43749256376669        0.05635499000864
C            3.31558079012921        0.42052249085586        0.34948725980749
O            2.93998911044886       -0.83417600530220        0.83138985344799
C            1.50375263429222       -0.87379751991538        1.15003226297856
C            1.07226414563505       -2.03335572592534        1.99963961905867
O            0.76046184944370       -3.26619652373525        1.14816496419936
C            0.78185424771956       -0.76492495627740       -0.20640077224331
O           -0.56704062324730       -1.17951423389225       -0.16566596890399
C           -1.41679214395493       -0.66273952819824        0.84224060035650
O           -1.57663661547515        0.70917335038816        0.82858586437412
C           -2.30750016685114        1.24179954453540       -0.33464351570200
C           -2.48980910771061        2.72508199016622       -0.24845901324616
O           -3.16079683398756        2.97125169484865        1.13528275094942
C           -3.66358805680492        0.53762037370620       -0.45576748436098
O           -4.35125527481928        0.99443536838219       -1.59536258023477
C           -3.45993412514664       -0.97329874568174       -0.56918800001600
O           -4.68288480070574       -1.66971384304138       -0.65666971450084
C           -2.72743664441693       -1.44985494462061        0.68554012583879
O           -2.38525795802253       -2.80827814561945        0.64325196350716
C            1.05736086795798        0.61736311254319       -0.81133327968013
O            0.44637984667339        0.70694969348658       -2.07463791693565
C            2.57910918464101        0.77598636398019       -0.95355051905355
O            2.83396995794929        2.10207572475216       -1.33819066561844
H            5.32052553851679       -0.65927993599551        1.69450550186175
H            5.36589638462176        1.11431501462395        1.88977627466896
H            6.53456204524203        0.30408198872211        0.79923234249219
H            3.07619114831452        1.19159448145905        1.11868956943228
H            1.31682412179675        0.04136214184598        1.73850797054306
H            1.94096427403628       -2.35052751500730        2.59767056340770
H            1.42554310298243       -3.46985393478457        0.45713557455541
H           -0.11704234154007       -3.09336840579008        0.73389991373873
H            1.23439005607571       -1.48366867287300       -0.90369582655336
H           -0.96582534761182       -0.89763934511715        1.82442525136249
H           -1.72873456872332        1.01778184212564       -1.24057085364741
H           -1.48374158844361        3.17673891642535       -0.14834006369992
H           -2.59502439399470        2.63701165363468        1.86146656306921
H           -3.28905661730447        3.93862686459207        1.20664736122486
H           -4.26915962387649        0.73819257451944        0.44480746639673
H           -4.16455930128408        1.94840178214120       -1.67138082968686
H           -2.83660530770086       -1.18425125113315       -1.45188454308973
H           -5.22578260800194       -1.22885830227740       -1.32674533259222
H           -3.36719580410819       -1.24231758114219        1.55722396499730
H           -3.18191157560908       -3.31270857213257        0.41636562919539
H            0.67785193185050        1.40867723394975       -0.14737390778090
H            0.77637618686358        1.50601841413640       -2.51444396020697
H            2.92881604288021        0.07322416636552       -1.72594680075526
H            3.78855512676765        2.21999939606659       -1.45560782705501
