48
 energy: -84.740306828479 gnorm: 0.000361467524 xtb: 6.7.1 (edcfbbe)
C            5.35287238006123        0.65898419992302        1.35715603190119
O            4.56561834566653        0.82157564466202        0.17941182571800
C            3.21192544037171        0.59712408836262        0.36177705579235
O            3.01200848725790       -0.73743707295135        0.74244864029339
C            1.65713212662935       -1.07671251206108        1.00369661986772
C            1.75814776518247       -2.51116629598119        1.52159080160958
O            0.33236863415397       -3.00504547057923        1.88522688748595
C            0.84145181396723       -0.87763557068595       -0.30720036422259
O           -0.52367035796021       -1.27404881043421       -0.18111412470583
C           -1.32053028771338       -0.80419125396010        0.87996447147240
O           -1.48724788601018        0.58355674620671        0.91149908272925
C           -2.25162881817009        1.09192072697266       -0.19001441637902
C           -2.34669820484589        2.61818499529791       -0.03562653596921
O           -2.43581909687873        3.27488155551482       -1.27142650087598
C           -3.62757968391655        0.41631232318102       -0.25505076497824
O           -4.44631762562488        0.92233044539996       -1.27631122958423
C           -3.43597378800663       -1.10364711718493       -0.40711184375402
O           -4.66719616565327       -1.78358000997797       -0.43580627766877
C           -2.63625814516488       -1.58944884419763        0.80061422672397
O           -2.30319425894194       -2.94923438472259        0.74605412975471
C            1.00234656457386        0.56932501910413       -0.81117107217579
O            0.29073556414162        0.81330306351771       -2.00174547133048
C            2.49818893041537        0.89232590223470       -0.96855056259042
O            2.71301409175354        2.19712812556187       -1.42722605063510
H            5.25421631700620       -0.35726127351811        1.74079432919182
H            5.03969954950990        1.37525985259542        2.12237371498760
H            6.37423862700969        0.85657051668194        1.04653766509985
H            2.80683410753682        1.26555231303806        1.15933727911280
H            1.26038196369608       -0.39397379550258        1.77468814696518
H            2.05183153869213       -3.12135582042592        0.64232236778016
H           -0.29040133897187       -3.16150978280508        1.13374274081122
H            0.48330166802656       -3.84103702403054        2.37079552537248
H            1.23280040135129       -1.56457161647831       -1.06736869120438
H           -0.84177813506654       -1.01566984356436        1.84704395457769
H           -1.71335505744366        0.86852878662369       -1.12401544989160
H           -1.47622888926875        2.95409518277059        0.53977223851602
H           -3.25155742386766        2.88573280631141        0.51272427272890
H           -1.60993758137462        3.15811098974186       -1.76334775889449
H           -4.17031319956043        0.60284236147628        0.68054579929006
H           -3.92267362695738        1.10094246156181       -2.07045570684239
H           -2.86410265071299       -1.31824871269271       -1.32396553984694
H           -5.29641315346395       -1.25417623122956       -0.95006266208443
H           -3.21992031039392       -1.37405307738152        1.70825717613363
H           -3.11001745839514       -3.45401628232448        0.55675270718540
H            0.56798551676349        1.25069024689298       -0.06985175881385
H            0.72640814491930        0.36656939789769       -2.74252261642236
H            2.94409289067754        0.23854041949761       -1.72713263115297
H            2.54177627235446        2.83773155471075       -0.72220670413584
