48
 energy: -84.852428308974 gnorm: 0.000881065643 xtb: 6.7.1 (edcfbbe)
C            5.50440494197477        0.38667731468746        1.17365921584286
O            4.66221084756738        0.59163856148710        0.04189474798779
C            3.30914991503029        0.45687236870904        0.29618845895020
O            3.03135410712740       -0.87499758608611        0.66569440915137
C            1.66060034005066       -1.09802479702776        0.93677611866078
C            1.52411100575122       -2.54803671542690        1.46429585709648
O            1.18464646838538       -3.49304242833402        0.48833574101052
C            0.84776762776331       -0.86352883781774       -0.34980841264285
O           -0.52064312390977       -1.22825370694618       -0.23696302520274
C           -1.28947866406553       -0.76385075920859        0.84134936303991
O           -1.40629158063325        0.62320255115483        0.93157217375471
C           -2.14935791598078        1.24702072594916       -0.12546197600293
C           -2.27217662153250        2.72875938539802        0.25127789418238
O           -2.86256986655551        2.90896234827417        1.51219526933682
C           -3.53607259722826        0.61781466556483       -0.31153108297179
O           -4.11400633529280        1.20327754752882       -1.45045257197375
C           -3.40605917656961       -0.90245545871193       -0.47083810277299
O           -4.65665584709092       -1.52416245210737       -0.63953024827615
C           -2.65504607074038       -1.46216900151056        0.73789160468125
O           -2.44337825753139       -2.84464325755078        0.66343822939125
C            1.06291461634877        0.58058385206138       -0.84537947285183
O            0.36490627904596        0.82907243223499       -2.03432382206654
C            2.56745724088373        0.84942277118055       -0.99395152657797
O            2.74408876010069        2.21080246295964       -1.27493492774195
H            5.39941022508561       -0.63256106818707        1.54674713430242
H            5.25413886875145        1.09876903230207        1.96487113771987
H            6.51481675599390        0.55784721714301        0.81472688873525
H            2.99056053407187        1.13267324988470        1.12059233197607
H            1.34039352752502       -0.38301571731023        1.71089049515630
H            2.50429898349567       -2.84440160781336        1.84373109929561
H            0.79996087617362       -2.56925831779741        2.28614869464722
H            0.25649811884974       -3.37343774267017        0.23271181496800
H            1.22757112953177       -1.55399049707074       -1.11303843790196
H           -0.82291177066516       -1.05193687668178        1.79591339714094
H           -1.60869333150591        1.16042516023648       -1.07506681796710
H           -1.27760100141017        3.18905763630750        0.21566984497186
H           -2.92230207502674        3.21584061461714       -0.47627877787085
H           -2.30830255398785        2.46321573409886        2.16966580306517
H           -4.14853589862776        0.84207739947101        0.57955921516273
H           -4.84401094105265        0.63901814021640       -1.75221299870899
H           -2.83705373489732       -1.12350815128110       -1.37996421539795
H           -5.22011650417573       -1.34948616202282        0.13023630212570
H           -3.21922719856926       -1.21880434921192        1.65506755613038
H           -3.17315849910990       -3.24273947289915        0.16151613658270
H            0.65904456420945        1.29182608849426       -0.11748406966451
H            0.75070177363853        0.31737929424745       -2.76155758065488
H            2.97414178734913        0.22304567490222       -1.80282290958133
H            3.68919328052124        2.39101977544239       -1.39478194870338
