48
 energy: -84.852632904003 gnorm: 0.000514688238 xtb: 6.7.1 (edcfbbe)
C            5.30857541410878        0.50506579821140        1.35541801663002
O            4.53438203932664        0.62190099929580        0.16328697993755
C            3.17414891541938        0.45275654305572        0.34357314607110
O            2.91644705578455       -0.86936048376862        0.75877270743098
C            1.54599545729575       -1.13422686582072        0.97961417975537
C            1.44696999660041       -2.58436604123904        1.48194064270426
O            1.90247863700655       -2.75173367312856        2.79714141443000
C            0.74204187267228       -0.94458252413252       -0.32315111633708
O           -0.62890532688229       -1.29073301804858       -0.20021007819266
C           -1.40238600040199       -0.77789289500515        0.85270199527990
O           -1.50571626011634        0.61658722415903        0.88251868105083
C           -2.20835735009499        1.18277942562113       -0.22709652181988
C           -2.28597657256494        2.69625093873870        0.01524658052217
O           -2.59437629061549        3.41407169797744       -1.14645312199935
C           -3.60447359402409        0.56556798028782       -0.37792091131504
O           -4.21650055610926        1.13235588606269       -1.50705402023450
C           -3.47774925535888       -0.95827174453717       -0.50579206973456
O           -4.77804425624264       -1.48718616280671       -0.64801928117025
C           -2.77792700480713       -1.45936321138114        0.76627827628250
O           -2.57639009934852       -2.84496702583605        0.80262210893491
C            0.98168979017868        0.47270498822042       -0.87239125219095
O            0.35208314542689        0.58670406520728       -2.12276181301323
C            2.48888736210274        0.72422380135270       -1.00223157316045
O            2.65852611336231        2.05322970800967       -1.41720246985667
H            5.18508493795167       -0.48598494104705        1.79348645460776
H            5.00684196174874        1.26955557469192        2.07683762257043
H            6.33765511533933        0.66001095309222        1.04595345005279
H            2.78408100245320        1.15969062316778        1.10913072147395
H            1.17021519677728       -0.42843032084545        1.73916332296941
H            2.10525788416424       -3.19554012286964        0.86198422179048
H            0.41440535142618       -2.93355864476114        1.36323129056113
H            1.31407823356665       -2.29702698424970        3.41650039912180
H            1.10270245808321       -1.65699802533238       -1.07352945969534
H           -0.95263836615915       -1.03064587645478        1.82367313684733
H           -1.65673525291164        0.99381547153483       -1.15819022209183
H           -1.30923592718953        3.04956341992747        0.35406847416852
H           -3.02069841162993        2.89452767956223        0.80817318899438
H           -3.36298310062298        2.99469884533545       -1.56922933513114
H           -4.20156547533156        0.78491980315328        0.52317466829581
H           -5.03139684629944        0.63793870655132       -1.68979366356519
H           -2.85049724273461       -1.19840268527337       -1.37226229191956
H           -4.73373349541534       -2.35905968899328       -1.06396356583984
H           -3.36102907983514       -1.12835841264188        1.63912107308213
H           -3.43389764711006       -3.28747619454105        0.90084579377786
H            0.57477888980049        1.21876289277625       -0.17208669612887
H            0.68498121450446        1.38959502995821       -2.55511080526400
H            2.91308850258189        0.02403910297968       -1.73686237110958
H            3.60555787584465        2.24458638475255       -1.49146491544837
