48
 energy: -84.855753079039 gnorm: 0.000650811422 xtb: 6.7.1 (edcfbbe)
C            5.43938483613335        0.54494036529769        1.30541221761970
O            4.63611845601463        0.68678125720910        0.13576375938637
C            3.28101005201818        0.50763202238948        0.34413373006792
O            3.03169339568125       -0.83112051855425        0.71309428571897
C            1.66248823653731       -1.08833723191654        0.95287027146563
C            1.54195008043614       -2.51612200320792        1.49573609566082
O            1.41465046244042       -2.45006421684065        2.89742354490535
C            0.85528214451604       -0.87831885289357       -0.34364183794348
O           -0.50116504739895       -1.27535273263715       -0.23680905847852
C           -1.28784016205296       -0.82490896378295        0.84416847968542
O           -1.42536511133598        0.55975958224634        0.92488822377436
C           -2.16107669642472        1.16144383780292       -0.14912314222835
C           -2.20785438972696        2.66529895067414        0.15114319066154
O           -2.98750705823715        2.97006607874757        1.27916640959502
C           -3.56494891901881        0.54526924650875       -0.24905340015204
O           -4.28467951280474        1.04580204710387       -1.35016447673851
C           -3.43256161079670       -0.97057965020212       -0.45266064286433
O           -4.69427766759650       -1.58544388276839       -0.50561816171320
C           -2.63956480386435       -1.56654164384177        0.71397392285881
O           -2.43454243813235       -2.94352030548697        0.59997424314117
C            1.06184303490294        0.56360289437269       -0.83336841106589
O            0.41244288710611        0.73140238513908       -2.06793936133999
C            2.56434003125128        0.83707708907579       -0.97289409519703
O            2.71212014549291        2.18678282350500       -1.32498828505458
H            5.33867371585277       -0.45968309661025        1.71722596805353
H            5.14507191338069        1.28271128967225        2.05703752199227
H            6.45923363771442        0.72237457814543        0.97768037261763
H            2.91044673351971        1.17970059203417        1.14885761926284
H            1.29972812607138       -0.38909868988016        1.72303104999853
H            2.44873271587148       -3.05752278201154        1.20400202856733
H            0.66395469988604       -2.99934014389802        1.05161941262966
H            1.37302415233711       -3.34836407084103        3.25613486832055
H            1.24488501662411       -1.55082077515385       -1.11710013197739
H           -0.82235202503365       -1.10649485920169        1.79992945598617
H           -1.63943492641696        0.99156805403178       -1.09980455846462
H           -1.18047683942154        3.02595417489315        0.27946791882481
H           -2.66051302453750        3.18933219192639       -0.69138629468093
H           -2.58232894723138        2.55663055951209        2.05447792133552
H           -4.10911902156060        0.72711204982904        0.68810750385088
H           -4.61445610048239        1.93222063188967       -1.14862541997390
H           -2.87945161767259       -1.14683375231705       -1.38930548118181
H           -5.22286531172610       -1.11846244588447       -1.17171633338138
H           -3.21130607775420       -1.42713083474193        1.63695046582457
H           -2.03686647230805       -3.12964107560325       -0.26384900900542
H            0.65603211059199        1.27005266645974       -0.09281269997108
H            0.76651401832055        1.53236329574406       -2.48698076719481
H            2.98256039509864        0.17868823601545       -1.74862069489284
H            3.65523777949093        2.39375455661546       -1.40728725617152
