48
 energy: -84.853225071015 gnorm: 0.000754633952 xtb: 6.7.1 (edcfbbe)
C            5.51873362810172        0.26864158903403        1.26792159479800
O            4.69915941750381        0.40100826079421        0.10986988235415
C            3.34299071695814        0.34496249474216        0.36125826522086
O            3.01051458705810       -0.98447181404357        0.71031551481344
C            1.63284960186704       -1.17541058583685        0.96519021062908
C            1.45506117610291       -2.60112420807527        1.50651843044375
O            0.70634604805540       -2.54410885864873        2.69869002886998
C            0.84942025171575       -0.91236272776730       -0.33444593435205
O           -0.51890407959576       -1.28356976714701       -0.28331681496707
C           -1.31581991250781       -0.84810991708151        0.80091466269410
O           -1.41503507973707        0.53566255006192        0.93301785344997
C           -2.12582808635988        1.21550665532202       -0.10604079825286
C           -2.18103335249150        2.69946180981284        0.28432226998254
O           -1.00668796474190        3.40289725513263       -0.03261418793987
C           -3.54198547754772        0.63438967181565       -0.28237254576729
O           -4.26241220097293        1.31734672513407       -1.27249652921573
C           -3.41727961544318       -0.87180450006476       -0.57315420374558
O           -4.64831522369011       -1.47586315361882       -0.86445988771518
C           -2.69159532527816       -1.52891403337649        0.61374425587806
O           -2.56405254095313       -2.91367416672448        0.47521308598477
C            1.09458242891352        0.53668383822831       -0.78685887761048
O            0.44898454889854        0.83116692184534       -2.00194111380347
C            2.60898672697885        0.78912345950026       -0.91028765714703
O            2.88235503045920        2.15020166081116       -1.09766691995807
H            5.34677523427206       -0.69556489158638        1.74912486920506
H            5.31021833541740        1.07796493253422        1.97317855435720
H            6.54025030319606        0.33670392173808        0.90627911807005
H            3.05910899104116        1.02488298134268        1.19138159841392
H            1.30539522160070       -0.46509388879540        1.74080314842487
H            2.45847213853880       -3.00188154491849        1.68767769617824
H            0.94404925364463       -3.22063012924276        0.76096535854716
H            0.64656799977160       -3.43173160745685        3.08131625381307
H            1.25618443561754       -1.58431333698443       -1.10343080975696
H           -0.87637784280914       -1.18405895042000        1.74990823336550
H           -1.57803871620623        1.10620308221934       -1.05279159098900
H           -3.05581206070692        3.15127877162372       -0.19678779863505
H           -2.28913084655688        2.76322746579918        1.36868126933007
H           -0.95226085167540        3.50709284190533       -0.99272482956081
H           -4.10452859956990        0.78671155416483        0.64646204360661
H           -3.95759390990298        1.04460469076454       -2.15066502753243
H           -2.81216174573052       -1.01668251861625       -1.47660830516710
H           -5.23068639304552       -1.44019807912193       -0.09261095243460
H           -3.27120617728004       -1.37406493683300        1.53018284208767
H           -2.05666868578946       -3.10217986355021       -0.32811387204673
H            0.68310883031849        1.23987149307652       -0.05422538946430
H            0.73496556714168        0.20545920711088       -2.68566638784031
H            3.02083694158915        0.19338502705839       -1.74086902553716
H            2.36992926866885        2.46911459770856       -1.85760161278867
