48
 energy: -84.824751241660 gnorm: 0.000631920281 xtb: 6.7.1 (edcfbbe)
C            5.68616834835860        1.51831624509928       -0.58778690355221
O            4.83251270337649        0.55374190298065        0.01472812399618
C            3.64591626937330        0.33839375430176       -0.65359495301321
O            2.80105579761045        1.45419700549616       -0.45054198862531
C            1.53524657398660        1.32979982341899       -1.06718022552720
C            0.80375721349230        2.66412047976335       -0.87536354857333
O            1.50423341772215        3.73300775957440       -1.44950871906401
C            0.76479799621984        0.15102791522303       -0.45372211169562
O           -0.48326779702763        0.00064265672242       -1.13221723932412
C           -1.65777444108650       -0.10867527694112       -0.39932690235182
O           -1.56754776435597       -1.25228035902160        0.43456675767487
C           -2.67509213475228       -1.50124004684549        1.30679941444791
C           -3.01973487014835       -3.00010747076844        1.23108390524799
O           -2.14488308900244       -3.79363987123010        1.98539417980175
C           -3.90083507041081       -0.63996970489044        0.96241883381205
O           -4.96569294843593       -0.88208911070878        1.84043472366640
C           -3.53933976627984        0.86537433581877        0.90701223233641
O           -4.37005039116736        1.54498699695185        0.00183294758341
C           -2.07941596654561        1.09984795837462        0.45604730616666
O           -1.22064846820092        1.34414906521968        1.53749770883950
C            1.58736274928764       -1.13359442505865       -0.62440352724497
O            1.02580988125756       -2.22079810501453        0.06917239568806
C            3.01851098226942       -0.94755015314355       -0.09967902564319
O            3.83188605074518       -2.01906822752688       -0.49225046283261
H            5.21981295063788        2.50544005157843       -0.58788865014491
H            5.92960786330676        1.22608211189309       -1.61401650383104
H            6.58685480180319        1.53041550128256        0.02012672781131
H            3.81668890616933        0.20481060514922       -1.74412135878937
H            1.66631105820195        1.14052849499190       -2.14542409732340
H            0.64103417974132        2.82903301262777        0.19734125845458
H           -0.15790056587418        2.61339584380994       -1.38805302491868
H            2.38533626641722        3.75546604617514       -1.05340023757047
H            0.61576918076729        0.34716318233074        0.61083348007164
H           -2.42020481041316       -0.25052012013754       -1.18093930186132
H           -2.35967244016494       -1.28703944775304        2.34089219581956
H           -3.03056433868455       -3.30403381741715        0.17675643274533
H           -4.01347538767986       -3.15401464834343        1.65751860498159
H           -1.25335449748855       -3.72960248573936        1.61932579355758
H           -4.27644440719443       -0.94025690529138       -0.02260405610546
H           -4.70683946511137       -0.67869822590571        2.75045067104067
H           -3.64393998532415        1.29640746705302        1.91695030845421
H           -5.29393053384969        1.41573100307813        0.25896242015387
H           -2.06035292389408        2.00414785696038       -0.15687002721998
H           -1.16714758893524        0.55893704213994        2.10062554623351
H            1.63569404034997       -1.36501247065358       -1.70238420919731
H            0.05896347164762       -2.12271539535319        0.03829105286016
H            2.99016106265082       -0.85923156036442        0.99678102636541
H            3.42461559957453       -2.83503172216892       -0.16708200995198
