48
 energy: -84.857492303955 gnorm: 0.000301520414 xtb: 6.7.1 (edcfbbe)
C            5.70908152886799       -0.03000289495607        1.08175916992269
O            4.79084276607822        0.45286004418762        0.10621127400190
C            3.46262907948587        0.40180667015179        0.47874313584640
O            3.03924928003032       -0.94655802990749        0.46139986196968
C            1.66445408817397       -1.11231332520850        0.76183582266608
C            1.37890942335548       -2.61693669201992        0.84305924189666
O            2.01968654847441       -3.21980698704359        1.93527520296950
C            0.82199109955967       -0.43356530672077       -0.33425446981987
O           -0.56783574557125       -0.70069572280943       -0.23192724381695
C           -1.27418899269304       -0.13088473682894        0.83921415349938
O           -1.78689740387267        1.13058612579037        0.51223731396842
C           -2.67545001121736        1.11356319054278       -0.60587857566213
C           -3.06124051480382        2.56587980462448       -0.90084245923606
O           -2.14095578501463        3.20782933280610       -1.74416664509674
C           -3.89438325008887        0.22807105579383       -0.30734962070296
O           -4.80418210479341        0.18405498121968       -1.37475685753582
C           -3.41035747043033       -1.18291660648383        0.06617435094436
O           -4.47555064081073       -2.00832944846052        0.47384667356213
C           -2.41788554076463       -1.08514791251837        1.22826062961116
O           -1.87223859734426       -2.32757639960246        1.57100655884794
C            1.15865026670554        1.06573304030008       -0.38437003796621
O            0.48103363392577        1.74066358846282       -1.41408732130742
C            2.68032457459574        1.26373446536485       -0.52282895128570
O            3.03738395242120        2.59641621130597       -0.27450211910472
H            5.55749112910407       -1.09562927412681        1.25853216018173
H            5.59435343439579        0.52283468424315        2.01807886429880
H            6.69402873560827        0.14580764743426        0.65948444583936
H            3.31522282887092        0.81930040698023        1.49686771006437
H            1.45662511340532       -0.65496206950656        1.74189659236545
H            1.68857870025099       -3.08290396892979       -0.09930550430773
H            0.30718108277944       -2.76056108403835        0.99284180861494
H            2.97620385603178       -3.12315483257844        1.82495737510187
H            1.09318120274379       -0.89610970489812       -1.29139534715827
H           -0.63004971468422        0.02661733104405        1.71033851770861
H           -2.14129816185333        0.70099546484603       -1.47405758334712
H           -3.15316551542679        3.09386118657159        0.05680121397654
H           -4.02115486613230        2.58894997393553       -1.42084484673230
H           -1.24579799827760        3.05516720124206       -1.40275768553703
H           -4.45125103905728        0.64622744862794        0.53891602548932
H           -4.34279467463570       -0.06152900865689       -2.19100523842231
H           -2.88824784028785       -1.63479291430555       -0.79266959526673
H           -5.22458148875811       -1.86539887189197       -0.12521177343830
H           -2.93921829931454       -0.64211115210371        2.09168632889471
H           -2.60424143071862       -2.95678227358767        1.67630026358245
H            0.82571255707565        1.55029394039553        0.54036060231138
H            0.70335645909587        1.34026866893505       -2.26883411654242
H            3.00455471658954        0.95356068091218       -1.52818666350412
H            2.56223902888838        3.17358607144247       -0.89337064231191
