48
 energy: -84.858438124082 gnorm: 0.000870480992 xtb: 6.7.1 (edcfbbe)
C            5.66804718270857       -0.01949309444961        1.16973304608656
O            4.79058233852467        0.51538279491993        0.18226646749902
C            3.44331754884984        0.41272925559783        0.47350334021196
O            3.05289026241328       -0.94402499288194        0.46964250849211
C            1.67503442967264       -1.12015862704797        0.75411266803218
C            1.39595969509119       -2.62617099039770        0.81781429554554
O            2.06119948689989       -3.24385068871538        1.88713330118157
C            0.82056277219684       -0.43610294769672       -0.32991223024269
O           -0.56589971370048       -0.68206546136886       -0.18698808955815
C           -1.25311815998666       -0.10231825348471        0.88986806844030
O           -1.77338508662785        1.16185608334511        0.58439289434030
C           -2.65490029684307        1.17315875110428       -0.54155987128080
C           -3.16328834204245        2.61119782388576       -0.68881460348601
O           -2.17033449230463        3.49743096475285       -1.12851106620736
C           -3.83100845228899        0.20324824876478       -0.34648676678816
O           -4.65105609011538        0.13211540721872       -1.48403771919410
C           -3.32385642041134       -1.19108455536968        0.05448059136167
O           -4.38769371039896       -2.04347699462809        0.40756509195570
C           -2.39729017924748       -1.06064360998608        1.26579289960576
O           -1.85182408727341       -2.28794574626996        1.65916038002713
C            1.17763492796859        1.05348882355750       -0.42525148335614
O            0.48401003882798        1.61375588475041       -1.50872719865679
C            2.69217470100714        1.19710869285961       -0.61326855524447
O            2.99282861738570        2.56598135418164       -0.56531536632434
H            5.56164932742575       -1.10244612906906        1.23073265764054
H            5.46103627946128        0.42880536647002        2.14497379975436
H            6.66801833927141        0.24277248857174        0.83709613459496
H            3.21773384379947        0.84896105782907        1.47127045758468
H            1.45960970788959       -0.67580650255813        1.73917115408064
H            1.68548461231643       -3.07728816503018       -0.13797323978424
H            0.32773678136740       -2.77271170096400        0.98787487543994
H            3.01501405424088       -3.14162100424407        1.75812704033163
H            1.05187825928923       -0.89925596416336       -1.29629750319684
H           -0.60329728402501        0.05005612108012        1.75807492465402
H           -2.07868111384528        0.89065781393552       -1.43416393999764
H           -3.56781711787098        2.93172745703804        0.28035272179682
H           -3.95718288184079        2.63639518379784       -1.43732897469670
H           -1.42147500301248        3.42718887171081       -0.52127640062761
H           -4.47713793365839        0.57772632397811        0.45673613042504
H           -4.11664405908263       -0.09948224952963       -2.25907288487010
H           -2.74261957456806       -1.62802775286265       -0.77244623095794
H           -5.09421527484532       -1.94471595665936       -0.24960825016609
H           -2.96169976792687       -0.60663809042151        2.09550338538084
H           -2.57933400862939       -2.92768953435494        1.72938055062561
H            0.89479777079294        1.56641777147297        0.50857704729113
H            0.89047323238550        2.46763964827454       -1.72417449843191
H            2.97544150132409        0.76304220825118       -1.58319596619882
H            3.94548534222072        2.69175261692424       -0.69260459287277
