48
 energy: -84.735916333258 gnorm: 0.000390864310 xtb: 6.7.1 (edcfbbe)
C            5.38244499590113        0.23615266598210        1.64281458374618
O            4.65202580302989        0.70941006313885        0.51339604057689
C            3.28763064405080        0.47559165659676        0.57459566055110
O            3.04707491294731       -0.90459778223979        0.55112009253916
C            1.68428535363478       -1.25727916556147        0.73193781891654
C            1.72456004682958       -2.78717395546106        0.73751861383363
O            0.27689335520875       -3.31513405025295        0.42378258788240
C            0.81339004195064       -0.60376282193718       -0.37637058535832
O           -0.58946626944508       -0.76664313316256       -0.13978035825247
C           -1.17856488800478       -0.05993532227110        0.92084408501086
O           -1.64970596439046        1.20810587411482        0.54788622323593
C           -2.55365632754085        1.18617515048373       -0.55193219532814
C           -2.94537356827178        2.63120165291485       -0.84876315962438
O           -1.87728442844422        3.28109431269340       -1.49698836195095
C           -3.80121565058097        0.33547090264212       -0.23189531642060
O           -4.67107840651902        0.28078927650534       -1.32881291520694
C           -3.36780028016132       -1.05474328043713        0.25520988553924
O           -4.49886583443085       -1.78415002045775        0.65981246849823
C           -2.36836184290287       -0.90019631472059        1.41673727858110
O           -1.98856037707662       -2.14467867954141        1.92875689536948
C            1.14084362087463        0.87340011998282       -0.64521219263206
O            0.56119907467613        1.18332712892007       -1.89035757702683
C            2.65107927999780        1.13571650678281       -0.65576143667942
O            2.84639423190687        2.52504121341001       -0.66555287266904
H            5.25821871132873       -0.84223268199487        1.74936463611998
H            5.03803765234826        0.73947565201232        2.55076145635987
H            6.41936462777474        0.48534718468282        1.43886739439035
H            2.85412226087673        0.91390034607851        1.50201010773791
H            1.35008984394396       -0.86305103972879        1.70968772324647
H            2.30580360672243       -3.04950881084592       -0.16898937348645
H           -0.00390897322468       -3.18136434170033       -0.50627838760839
H            0.35647917019705       -4.27559991557359        0.61232538703658
H            0.98019821124173       -1.12661629543454       -1.32679876998247
H           -0.47153319822041        0.12440348792164        1.73748743271192
H           -2.03203764624586        0.77485985266176       -1.42777431082454
H           -3.18062347179370        3.11910517438422        0.10455262475527
H           -3.83867605721001        2.61169015503018       -1.48498208222047
H           -2.11894860893074        4.20584956173149       -1.64920603409664
H           -4.37358005755609        0.81932867730172        0.56762716390512
H           -4.29624144663441       -0.28729621466333       -2.01833846137248
H           -2.86236369357368       -1.57864068483147       -0.57271257250813
H           -4.20188579840369       -2.49789527142757        1.24798707305545
H           -2.85847150346822       -0.35408434714598        2.23107523558790
H           -1.20234608482243       -2.46505667362501        1.45276802386745
H            0.70402668472200        1.50178562461884        0.14416366222151
H            0.59822973279374        2.14022746285343       -2.02998306970170
H            3.09497186645949        0.66751553271367       -1.54719854777456
H            3.79762762716502        2.71009547028772       -0.64622763278247
