48
 energy: -84.850600128704 gnorm: 0.000292032239 xtb: 6.7.1 (edcfbbe)
C            5.66307844197433       -0.08847481872646        1.14350805657805
O            4.80862891472571        0.54799078807277        0.19538284207740
C            3.46308022257666        0.45891344654736        0.48984511848265
O            3.06144494276856       -0.89302181232988        0.41965373720306
C            1.69447708150185       -1.09028710653553        0.71881214975173
C            1.43005509560635       -2.59272122795514        0.77001336240685
O            1.96099484844067       -3.09191685636186        1.97649145943122
C            0.83229740711560       -0.37781527929108       -0.34451912362723
O           -0.55112661972105       -0.66212590336280       -0.23823405805484
C           -1.25693410774203       -0.14318144234498        0.85670663110494
O           -1.79006421339931        1.12383012302498        0.59025485247576
C           -2.68989962157004        1.15107205001153       -0.51835731590727
C           -3.10636966007832        2.60868844001064       -0.70509098190828
O           -2.09113633827831        3.38766205327552       -1.28505647673056
C           -3.89254884443077        0.23344531216623       -0.25814821164329
O           -4.72863230982287        0.26360370959141       -1.38925185434487
C           -3.36647896572892       -1.18796293358963        0.02088668733502
O           -4.39746936606347       -2.08315053584689        0.37557297012004
C           -2.39051612298897       -1.12634144766147        1.19981112757435
O           -1.84049974887228       -2.37781477174957        1.49786510004747
C            1.17415420201177        1.12193326369821       -0.32393653148498
O            0.45132843148075        1.81829548255117       -1.30943265183210
C            2.68729214089743        1.29082961061074       -0.54504927861572
O            3.04059172532320        2.64367912583158       -0.55938817925239
H            5.42538402145334       -1.15041286635285        1.21775543220974
H            5.55699296198660        0.38271423023990        2.12491989478364
H            6.66951165050815        0.05299377083254        0.76196128755898
H            3.25543052560841        0.83905866489276        1.51688751611000
H            1.48554721027537       -0.67490014293916        1.71804334930522
H            1.91798030421729       -3.05598043930782       -0.09481113138092
H            0.34628580768065       -2.74582653459541        0.72591752420533
H            1.76967977164334       -4.03888337166821        2.03588696303845
H            1.09136563446132       -0.78295475146208       -1.32896583399309
H           -0.61185545764493       -0.01539232160661        1.73267624462088
H           -2.16929681353044        0.80454269751726       -1.42115870433478
H           -3.38080128020166        3.01596218796763        0.27825943197677
H           -3.96563900217911        2.65392557260619       -1.37751560239523
H           -1.23497061655671        3.04143591099172       -0.98660468913925
H           -4.42140898852783        0.59357440380939        0.63466802051590
H           -5.63093089795226        0.02360225262771       -1.13460232049451
H           -2.82034770497974       -1.54513447245727       -0.86137884568814
H           -4.88018669907596       -2.35118113967292       -0.41891132286582
H           -2.92558226567176       -0.72492715199128        2.07535908476028
H           -2.57228517913211       -3.01564981867711        1.55144047978123
H            0.90451800275450        1.53442542392941        0.66328798234844
H            1.05095583983805        2.45032462511004       -1.74039224182796
H            2.95651136033732        0.90597292445448       -1.53480421889820
H            2.98162129016051        3.02586303413812        0.32889627762844
