48
 energy: -84.853839428881 gnorm: 0.000570870997 xtb: 6.7.1 (edcfbbe)
C            5.41462963061733        0.15354607443874        1.48561282554339
O            4.65743404918699        0.66730751029163        0.39217359940402
C            3.29291166259418        0.47411852905848        0.49462252375995
O            3.00900017601826       -0.90672883864911        0.42797113178351
C            1.63871534151740       -1.22087142103325        0.56581516597189
C            1.56343261289650       -2.75322179440429        0.39010149080241
O            0.29344716898123       -3.25931290186472        0.10723450922177
C            0.75128192090800       -0.48624026501071       -0.46208331128198
O           -0.62677296313994       -0.67675337732490       -0.17645842849764
C           -1.18755884426293       -0.06652375507179        0.95239028523601
O           -1.69503734540831        1.21205222575959        0.67652067890371
C           -2.66378467821136        1.21360044162109       -0.37395112115282
C           -3.08930663884497        2.67719583217965       -0.62269349715500
O           -4.25235066925128        3.07138565283231        0.05663876501861
C           -3.86224680654658        0.32082566363352        0.00730289190971
O           -4.85813084559257        0.33491209385015       -0.98147228628642
C           -3.36900942042729       -1.09306795104430        0.34072657301026
O           -4.40344367056878       -1.97038980046255        0.70817103499689
C           -2.31625481613417       -0.98229589519114        1.45490277531575
O           -1.78480019040111       -2.23232562105015        1.80896809249380
C            1.11179914012681        1.00074006836179       -0.60357882594064
O            0.47852421663834        1.48786859434058       -1.75930164081200
C            2.62943323748250        1.19109635132261       -0.68752468225978
O            2.88223782121187        2.57048113664804       -0.67984487391797
H            5.29323645051303       -0.92774362388260        1.55792402246242
H            5.09696100541242        0.62609951607654        2.41932174812249
H            6.44702052638589        0.40714655610826        1.26458933128191
H            2.90482558637471        0.88334534271192        1.45305941287921
H            1.30681789506931       -0.93981747259389        1.57855047964372
H            2.19598560741524       -3.01578789653182       -0.46183629650618
H            1.98537255662682       -3.21910148243231        1.29101544627310
H           -0.35009179784294       -2.94404141761323        0.77079570603438
H            0.86795194279141       -0.95883332967997       -1.44329838234718
H           -0.45401512761859        0.08868485648993        1.75276110194316
H           -2.18030305982864        0.82087559708478       -1.27841955186850
H           -2.28781268922079        3.31737140820689       -0.25068928555039
H           -3.20367865099697        2.83542028971469       -1.69953226661813
H           -5.01255794796216        2.62025654544499       -0.34215713940441
H           -4.32868346720433        0.75023550589813        0.90401550197490
H           -4.55891103158253       -0.15618706126320       -1.75996033770515
H           -2.88690644995506       -1.54707266123796       -0.53276711864559
H           -5.03837616144775       -1.51822927968427        1.28270086131873
H           -2.76446449412682       -0.50193611934963        2.33949058899410
H           -2.51461523906805       -2.87605150408419        1.79198234128962
H            0.75222345918915        1.55611108398108        0.27767794583560
H            0.83591146493498        2.36969378261765       -1.94801455610536
H            3.00676284790598        0.72272078341329       -1.60828262474239
H            3.83989667782906        2.71957491884215       -0.69652466632402
