48
 energy: -84.743892280269 gnorm: 0.000683152201 xtb: 6.7.1 (edcfbbe)
C            5.57961276847354       -0.03624241840028        1.25777724717483
O            4.75412345607867        0.58073689080818        0.27233658525940
C            3.39591756338466        0.44742046212034        0.49510962647448
O            3.03571797229504       -0.91221191073114        0.40419841469234
C            1.66745638592615       -1.13587252110410        0.66855173423583
C            1.42039457539024       -2.65056397213013        0.61695401796452
O            2.16688327613615       -3.36952939623846        1.56099304685360
C            0.78822017024896       -0.40851798576549       -0.36843628056029
O           -0.59731872165908       -0.62638858524029       -0.15369605909942
C           -1.21513857148742       -0.04382989267103        0.96619572129057
O           -1.72562670737459        1.23391419559177        0.71595984307442
C           -2.64051934587512        1.29901081516466       -0.38005038600372
C           -3.01862154740947        2.77332259649236       -0.51864523235895
O           -4.00390577403295        2.84992492295186       -1.71551315388229
C           -3.82919334761175        0.33478066086210       -0.12179006207820
O           -4.64216356511835        0.31900307845716       -1.27751572487663
C           -3.34434298761077       -1.07530189942546        0.21852790373752
O           -4.47725546227863       -1.85496652206096        0.53163199330308
C           -2.36697361601252       -0.98484637597984        1.39205824347508
O           -1.92083000960562       -2.27625890270926        1.72010942537740
C            1.14805668620241        1.08204802310251       -0.47169845088129
O            0.51307745227768        1.59091399930623       -1.61360525373022
C            2.66994994746562        1.26813399092249       -0.57955861987258
O            2.93640957313472        2.63846873493103       -0.44440272528066
H            5.39665827012506       -1.11103853761069        1.28881143470939
H            5.38506811903461        0.40280673544125        2.24044694321145
H            6.59972853239980        0.16749692007813        0.94685456092874
H            3.12095659525238        0.83049565051102        1.50347748898668
H            1.44005262883365       -0.74975888640322        1.67730471344857
H            1.74672832758681       -3.01992574525279       -0.35634426062125
H            0.34340551376658       -2.82497248005919        0.73146673734219
H            1.91442213354266       -3.10676644088932        2.45701488019325
H            0.96059934300784       -0.85838917707593       -1.35262934054646
H           -0.50994164868719        0.09341487753605        1.79571997104869
H           -2.12144440013734        0.94705990322105       -1.28610432197531
H           -3.68753588453220        3.00824262889064        0.33865239191420
H           -4.50033158291988        1.99271807195144       -1.78841135595267
H           -3.45099030333886        2.97376630967705       -2.51142056663063
H           -4.41038007321102        0.70634280185460        0.73937575658483
H           -5.32610644232903       -0.35871777828082       -1.16632962834292
H           -2.80925438858582       -1.49929661577389       -0.64296782290180
H           -4.18011569658039       -2.72654119801943        0.83083342997386
H           -2.88398089354920       -0.51212576124661        2.23742485380655
H           -1.67992590078098       -2.31452228892091        2.65564135309690
H            0.79661721701975        1.61434152599824        0.42532682283240
H            0.71396659537577        2.53722910952720       -1.67973498751810
H            3.00285868256845        0.89379495144705       -1.55871520158814
H            3.88999907944437        2.78804945065285       -0.53068872107730
