48
 energy: -84.741027048700 gnorm: 0.000406465766 xtb: 6.7.1 (edcfbbe)
C            5.53637040461044        0.21586930124796        1.29090689215288
O            4.70360650909950        0.67822712287790        0.23088682843422
C            3.34983205126492        0.53517828318424        0.47451450979767
O            3.03233026217574       -0.83174799314980        0.47841799609666
C            1.67002157622001       -1.12284635081928        0.76105640420788
C            1.63667568830982       -2.65134695756859        0.94314133229218
O            0.31749384201546       -3.23276720081440        0.44200817832381
C            0.79454451895111       -0.49964226424623       -0.36562482841141
O           -0.60210445100651       -0.77622415848939       -0.20565316867756
C           -1.26799259198841       -0.14168293652580        0.85138017752571
O           -1.79842056978383        1.09353281892775        0.45578554736852
C           -2.75055344375444        0.99452549806824       -0.60654724439194
C           -3.09179525021390        2.43353784012267       -1.00820500617481
O           -2.02822534551498        3.04977587006487       -1.69538994174360
C           -3.96793545949653        0.17361154206937       -0.14183132854317
O           -4.90527361033637       -0.03036668755572       -1.17163297445007
C           -3.46723025593311       -1.21503048187821        0.28751922580102
O           -4.49536610833785       -1.99919968366885        0.83719618388935
C           -2.39162845126890       -1.05713109345710        1.36470658831486
O           -1.84490924721585       -2.28840651026831        1.74972664036321
C            1.07523084369691        1.00927896375720       -0.47922715603022
O            0.43120248580840        1.57703093449823       -1.60018028496374
C            2.58282308753235        1.26390410081044       -0.63374868505787
O            2.86435577201245        2.63341085050936       -0.54028197134463
H            5.35678406837694       -0.84404483651251        1.48027129117765
H            5.34172740441632        0.79207626085039        2.20033097859462
H            6.55358081336498        0.37902865074020        0.94825061351918
H            3.07715842269104        0.98462511482419        1.45602782882702
H            1.40675357529806       -0.61402523014012        1.71024702058211
H            2.36250540692292       -3.03789040650177        0.19994874538432
H            0.06235657145665       -2.94418622962619       -0.45946720096118
H           -0.40619811543540       -2.93165866896396        1.06026731573250
H            1.05321023723817       -0.96106963430551       -1.32567244651694
H           -0.58522499167318        0.08208395034296        1.67801212947861
H           -2.28848665027681        0.47249180776054       -1.45726492315154
H           -3.24501405997438        3.01800605184513       -0.09849920184056
H           -4.00179003234866        2.44404963401905       -1.61230287695210
H           -2.02793734488602        2.76701258906782       -2.62162574975147
H           -4.42542721533900        0.66506292006727        0.72656820778220
H           -5.52150340455130        0.71155776601235       -1.22867823797666
H           -3.03323613669634       -1.71078015899051       -0.59244399915866
H           -5.21096466033362       -2.07038920631954        0.18851394533886
H           -2.84695473499997       -0.55648143945927        2.23185314014309
H           -2.57688421286592       -2.88476647833625        1.98134724160895
H            0.75178641408405        1.50826044844878        0.44316607278048
H           -0.37011508311903        2.06357235060446       -1.32722690209675
H            2.92520778684623        0.85681819011486       -1.59596541383966
H            2.39342567907818        3.08721467201213       -1.25817954606138
