48
 energy: -84.854406615871 gnorm: 0.000837577280 xtb: 6.7.1 (edcfbbe)
C            5.63805613715394       -0.04446684182992        1.09064889791715
O            4.75720108516670        0.51510565644735        0.11914476824483
C            3.42148608336552        0.45810829246912        0.46444906512433
O            3.01665404010353       -0.89365255179224        0.45420783121598
C            1.65318147485681       -1.08103421070977        0.77088818068317
C            1.39042276588172       -2.59017925917543        0.87749753109769
O            2.04888005909852       -3.18751090082380        1.96286433733903
C            0.78959770976750       -0.43263154240238       -0.32987547931005
O           -0.59856078058912       -0.69582254510651       -0.19077336779148
C           -1.28976848473261       -0.10065499485072        0.87365066385784
O           -1.82165088986656        1.15552647907759        0.54316138485163
C           -2.69094733983754        1.12543464548950       -0.58265951767752
C           -3.11102936232262        2.57097276312213       -0.87304219963324
O           -3.70901997789996        2.71681544615789       -2.13256767806382
C           -3.89638196010270        0.21603699429052       -0.29799006176245
O           -4.71411757163642        0.16612771525144       -1.44031170097788
C           -3.40048364366616       -1.18090921355960        0.09940236992440
O           -4.46859397934686       -2.04883411823030        0.39006523177264
C           -2.42963609915899       -1.05699528715266        1.27900282829960
O           -1.88809474894242       -2.29139117824808        1.65877420367268
C            1.11804104508061        1.06479235635586       -0.44139512093237
O            0.45057162251352        1.68289216751168       -1.51114209251982
C            2.63871920898847        1.28807760900291       -0.56269299009386
O            2.95715913954128        2.63616854711575       -0.34461210184409
H            5.39797231485192       -1.09527158295335        1.26156376774657
H            5.56650082462708        0.51199906351375        2.02946592889340
H            6.63283370031431        0.05555313622196        0.66733714469352
H            3.25229222965930        0.88755715596662        1.47542605176386
H            1.44581653768852       -0.59811358268170        1.74055228955670
H            1.79022857624618       -3.07365721808004       -0.01504844275770
H            0.30741408133173       -2.74279561605233        0.93327872377814
H            1.64557903073856       -2.89494431386227        2.79228495104398
H            1.04102059114468       -0.92586076697487       -1.27692276245743
H           -0.63759213738301        0.07829386706088        1.73500711200261
H           -2.15202518245465        0.73505787991421       -1.45550206553641
H           -2.21400339878756        3.19307705888451       -0.87460209882581
H           -3.78221300124776        2.91859034437092       -0.07538569199737
H           -4.39903517468269        2.03885986645199       -2.22550585267147
H           -4.46332541071476        0.64455596179108        0.54795422278738
H           -5.24674307269228       -0.64503774721363       -1.41208606746902
H           -2.86861967315957       -1.63363794532110       -0.74398482569728
H           -4.98894662139128       -1.69883832387623        1.12983565152442
H           -2.95306293230252       -0.59386650028284        2.13338889956067
H           -2.57561840721616       -2.97216817277454        1.56002993010798
H            0.76009788255806        1.58787158006591        0.45303008792400
H            0.69182533921971        1.24917430245335       -2.34412778951784
H            2.98200451647538        0.96373287811869       -1.55755198421409
H            2.41758785365748        3.18354963242519       -0.93830117266849
