48
 energy: -84.854349608342 gnorm: 0.000472550740 xtb: 6.7.1 (edcfbbe)
C            5.63113817012923        0.00718679916094        0.98929418939195
O            4.73633177149410        0.53541423000850        0.01323991331391
C            3.40434639251589        0.46128507463028        0.36866771270076
O            3.01109175872226       -0.89369724545488        0.34991607506549
C            1.65394258014582       -1.08465798335153        0.69055911889540
C            1.40429531549038       -2.58364834714798        0.84156630764243
O            1.94882935931547       -2.99879278120834        2.07318977544454
C            0.77739963909594       -0.45123357346811       -0.40864482933108
O           -0.60540704199690       -0.74282002134713       -0.27580123852475
C           -1.30206773595400       -0.15713836488441        0.79178938908599
O           -1.84708534860187        1.08613910410069        0.44430248111943
C           -2.76396145800571        1.02446028951806       -0.64884421370261
C           -3.17497877849244        2.45971766329610       -0.97980219500241
O           -2.23014991655262        3.12547976208802       -1.77649766125419
C           -3.96590800709731        0.14427165231538       -0.28262037448706
O           -4.83753360136477        0.08392491202847       -1.38024372687838
C           -3.45506948521801       -1.24928682104917        0.10932624723462
O           -4.50657747226864       -2.10992599702709        0.47432244911872
C           -2.42106553693430       -1.12030380831609        1.23389788015634
O           -1.86049941732593       -2.35615198929339        1.57934411981254
C            1.08490371077233        1.05341429921922       -0.48900903700019
O            0.38119406186085        1.69920374658976       -1.51950427237655
C            2.60111629061741        1.29167062841427       -0.64283954676109
O            2.91821810622818        2.63837853102103       -0.41754206504602
H            5.40813732296970       -1.04380273205604        1.18068373594717
H            5.55377594595052        0.57751317060691        1.91927159866591
H            6.62233362114041        0.11649187754295        0.55995797420612
H            3.23865521004611        0.87913899366670        1.38461141884471
H            1.45876732604857       -0.60476146246286        1.66251085367677
H            1.89002330363427       -3.09815085831469        0.00477902013471
H            0.32184970884364       -2.75029410817667        0.81729993805710
H            1.77731775098474       -3.94431859718282        2.18895705465048
H            1.04309284831973       -0.92835819192407       -1.35975116923105
H           -0.64110030169931        0.03727689136416        1.64346762869061
H           -2.26662465137930        0.58478551466092       -1.52278222180445
H           -3.33386583365723        2.99690311872258       -0.03463899389543
H           -4.10364606016897        2.43801378209750       -1.55333593470826
H           -1.34189170606686        2.93479481111183       -1.43439627901849
H           -4.47976493354822        0.59743791193345        0.58364486081991
H           -5.39493394580949       -0.70642319815815       -1.29285002393622
H           -2.97533269190345       -1.71658983673123       -0.75720873611577
H           -4.99073550993490       -1.73850699523099        1.22804181511890
H           -2.90446030889613       -0.66280879781751        2.11487859147402
H           -2.56240833613356       -3.02864001497655        1.54751123830885
H            0.75259172100266        1.54525003298805        0.43237909072314
H            0.58233438594409        1.27874660363050       -2.36958560874619
H            2.92781709243980        0.97526399157479       -1.64509325960592
H            2.42270169506944        3.19015732528417       -1.04382709927674
