48
 energy: -84.635541652283 gnorm: 0.000609987713 xtb: 6.7.1 (edcfbbe)
C            5.52499083734579       -0.01327878582402        1.36389367938148
O            4.71552230147631        0.45333350975486        0.28657750142518
C            3.35490501669790        0.34367973694887        0.50643277113606
O            2.99755037891801       -1.01266248156453        0.43834106353809
C            1.62414066239509       -1.28097462707477        0.71651103519001
C            1.50330663365119       -2.78821432741694        0.80198063581328
O            2.03613540725645       -3.28151558340063       -0.62206455869750
C            0.77098585249786       -0.55488367069968       -0.36168317898089
O           -0.63653822831844       -0.77460427031716       -0.22849162401601
C           -1.28084334407569       -0.18281857054643        0.86446849934295
O           -1.73473334041397        1.10671523930740        0.55902257012942
C           -2.61969923879831        1.16191782947634       -0.56254917044971
C           -2.73005205621780        2.64508667266290       -0.89864850772345
O           -3.75453776775643        2.76845389168763       -2.04952001858037
C           -3.91298983229393        0.40317775248554       -0.18110914229606
O           -4.81606555919622        0.45904110284575       -1.26483204010124
C           -3.54527484553438       -1.04336879077604        0.15075991082142
O           -4.71644276122425       -1.72234720793662        0.54510682268846
C           -2.47978359571098       -1.07778368380297        1.25487575909500
O           -2.09664727493021       -2.39662281622223        1.53353276681590
C            1.10022005086279        0.95398744893213       -0.41049304620996
O            0.44871775263321        1.58555203159048       -1.48779954258313
C            2.61667372222101        1.15838559329790       -0.57249204909728
O            2.97979586962323        2.50823218320789       -0.54502883438028
H            5.29210521160676       -1.05298279388177        1.59836107511239
H            5.36808980626575        0.60738773515323        2.25117806173320
H            6.54896490703943        0.08077788050262        1.01530007019109
H            3.08352651541713        0.73819090715292        1.51235434211821
H            1.36699974940707       -0.87372414748317        1.70892490961820
H            2.24793615536666       -4.22792923504973       -0.47904621493806
H            0.42585303293922       -3.02439032300805        0.73168347999733
H            2.88022449858477       -2.78780552495903       -0.68958998538328
H            0.99064259610769       -0.98618140919170       -1.34452344390631
H           -0.61354741639053       -0.07063383700680        1.72633778013425
H           -2.16717557919348        0.61276880364026       -1.40582428324365
H           -3.27016141060924        3.12314747780009       -0.05527239940901
H           -4.42125833648204        2.03615251633818       -1.98461180454757
H           -3.25235752469928        2.68360289302544       -2.88403982545782
H           -4.35810750358586        0.86832837317603        0.71278129790075
H           -5.56649468167013       -0.12228130755477       -1.07144326284962
H           -3.12519851592880       -1.51348226196751       -0.75452550142753
H           -4.46512721074657       -2.55760421051039        0.96663984332761
H           -2.91307286351363       -0.67998816008909        2.17913999316881
H           -1.53145867063267       -2.70900270433787        0.80742829091548
H            0.79200177217201        1.40876525034434        0.54202033064841
H           -0.35112862770085        2.04761996797118       -1.18196595830384
H            2.93056016195586        0.79761770408097       -1.55631436146972
H            2.64102428220625        2.93500421455046        0.25569323332551
