48
 energy: -84.734609279593 gnorm: 0.000398460423 xtb: 6.7.1 (edcfbbe)
C            5.50963533121350       -0.02684116591062        1.45692132533170
O            4.75147724618469        0.54238978720744        0.39272303659323
C            3.38328094779854        0.37765008648174        0.50783662154546
O            3.06419863496819       -0.98997002724406        0.39060984666396
C            1.68854868656574       -1.25400924672959        0.57499502805833
C            1.51364634361249       -2.78533945482403        0.54380793510145
O            1.66937455863572       -3.36685362949612       -0.72103810633417
C            0.85375570857364       -0.52048430727749       -0.49458776874708
O           -0.54907138094626       -0.72746154176173       -0.34334585394122
C           -1.19392954996372       -0.13580730742666        0.76532140403099
O           -1.67313783608825        1.15185914227738        0.53616293178406
C           -2.63570127593771        1.27275102472793       -0.51089142047208
C           -2.93125731917456        2.75387845812199       -0.69494577548790
O           -3.69021193968863        2.78835606751952       -2.05002879320451
C           -3.86728657204951        0.40921004496101       -0.14187792477526
O           -4.83016828237200        0.51757175577385       -1.16732950736720
C           -3.43958064937813       -1.04035045716962        0.07265327832902
O           -4.57465763542745       -1.79428707290379        0.44220788615871
C           -2.35197179962905       -1.09191771166794        1.14912975072952
O           -1.90694222040803       -2.40776400204418        1.34749097075121
C            1.20624127127023        0.97938242724928       -0.61111471327750
O            0.59438212385855        1.53582843209044       -1.73933555570236
C            2.72810512344711        1.18214153087826       -0.62580406472434
O            2.99373444922452        2.55007128403525       -0.49290370352165
H            5.36831284637134       -1.10780240923283        1.48962424193459
H            5.21113352481765        0.41555879610971        2.41156793382554
H            6.54456684669816        0.21467295475143        1.23438078152689
H            3.01861466415656        0.75309077798780        1.48922458999154
H            1.39469819998924       -0.90036067361668        1.57728545722330
H            2.30614304618546       -3.21273312108927        1.16124020420050
H            0.54273815424977       -3.03280852017208        0.98569075293607
H            0.91761442759905       -3.14302812477636       -1.28650386311314
H            1.07369168079843       -0.98080226339323       -1.46636084272974
H           -0.50773403193152       -0.03498412329004        1.61416532715896
H           -2.19949127388218        0.88196720336766       -1.44293228953119
H           -3.70920438891382        3.01665881871281        0.06053134962671
H           -4.45402728641593        2.16112398936074       -2.03385253252274
H           -3.98433551283161        3.71159769720125       -2.17135060588360
H           -4.28617833109325        0.78692013918046        0.80662685845678
H           -5.52497952026994       -0.13734689119342       -1.00441730100795
H           -3.02184072306601       -1.42817719997287       -0.87152829502570
H           -4.28233228884464       -2.62877732467004        0.83845303742129
H           -2.76965325488614       -0.75950926242524        2.10451019967547
H           -1.53355715029567       -2.71985873503890        0.50856638941820
H            0.78498796257491        1.53111218204634        0.23628965394285
H            1.06145266811352        1.26235886192225       -2.54404266333979
H            3.13923124357034        0.79125049925623       -1.57069418854520
H            3.95358152171699        2.68831055585052       -0.49932405129367
