48
 energy: -84.745724211563 gnorm: 0.000502127231 xtb: 6.7.1 (edcfbbe)
C            5.48265504571321        0.19194368763889        1.40403882064469
O            4.68115702716544        0.69393008745184        0.33681600838608
C            3.31977869674343        0.48931807938546        0.49836643725654
O            3.04279028380276       -0.88432430652897        0.49978787246004
C            1.68014947908447       -1.19394661218251        0.74601310777643
C            1.66238852635116       -2.72557995954275        0.84885664938060
O            0.25880668431938       -3.25661210033301        0.57431615484038
C            0.79199011175987       -0.54914606433483       -0.36255321406091
O           -0.60274893830969       -0.77506794639450       -0.13151275276397
C           -1.21499889678131       -0.11148147735827        0.94474703053648
O           -1.73633338422343        1.13602868151950        0.58571834201590
C           -2.69816633167302        1.08898297419111       -0.46437909031504
C           -3.20817552212938        2.51729666868246       -0.66642190414455
O           -3.94179262124755        2.91212711649919        0.46907185594254
C           -3.86590518827631        0.13931833869490       -0.14217756239951
O           -4.72674191305473       -0.02104774191198       -1.24182884840035
C           -3.35207525106138       -1.22261807982727        0.34307510325735
O           -4.39528794762614       -2.03057985961579        0.83298601423309
C           -2.34605850866706       -1.00688092220535        1.47489791906282
O           -1.81216286285355       -2.21199658835232        1.95446363074029
C            1.10381106135184        0.93818878692598       -0.56784862533955
O            0.43952059337178        1.37483583100486       -1.73071090038145
C            2.61361205223216        1.15855593892331       -0.68754271515491
O            2.84070609457149        2.54262087444532       -0.73365275016424
H            5.33094632667228       -0.88203645180455        1.51798002761053
H            5.22718156667595        0.70198964680173        2.33720765860358
H            6.50781873808836        0.40801024598604        1.11893053728510
H            2.96496114311762        0.94139697617855        1.45256209208020
H            1.39451056042540       -0.73420279142717        1.71240098859828
H            2.22697928448264       -3.08034053192150       -0.03694296378696
H           -0.13539955069952       -2.91434359680911       -0.25634218838433
H           -0.34613580960422       -2.95703212615522        1.30642317424994
H            0.98454420132630       -1.05351840979564       -1.31792843786517
H           -0.50230567538127        0.09566729105692        1.75036305062587
H           -2.19298888382932        0.75630168914961       -1.38375773357634
H           -2.33941638574662        3.16663450331939       -0.81607166297947
H           -3.84252974947159        2.52983964382939       -1.56080813903699
H           -4.23446534375637        3.82689670730272        0.35454213776440
H           -4.47286631598675        0.59388129056505        0.64873703663546
H           -4.22556736470729       -0.34565000970766       -2.00563372864256
H           -2.84129306518128       -1.73262781167652       -0.48943683842707
H           -5.16732542010444       -1.92858797390972        0.25687989804972
H           -2.84267052005198       -0.45741701291714        2.28700791627065
H           -2.55682804284308       -2.79668861138303        2.17517310245681
H            0.74755145797337        1.51660260492175        0.29989403365816
H            0.79586762256027        2.24533633694783       -1.96560762319232
H            2.98297359004494        0.66900166751002       -1.60188451161176
H            3.79627232889921        2.70409529164656       -0.73494244962186
