48
 energy: -84.742624376959 gnorm: 0.000621955210 xtb: 6.7.1 (edcfbbe)
C            5.59612032457976       -0.05961033117209        1.32746463084047
O            4.79351414679499        0.53908166585010        0.31209470521639
C            3.43010890266844        0.41675469567340        0.51239915323905
O            3.06712051132976       -0.94375516020771        0.44946626787437
C            1.69291141108400       -1.15255591069484        0.69543326643717
C            1.42972488569974       -2.66494056265283        0.70210013615364
O            2.03327589698473       -3.32602319719442        1.78207174608061
C            0.84439880403895       -0.45216279606441       -0.38364396937296
O           -0.54567401341207       -0.66668324366078       -0.20221696730091
C           -1.18472440371273       -0.05602685013385        0.89083152082051
O           -1.68446645260790        1.21435185459812        0.60263197660541
C           -2.57987931025783        1.25239481122176       -0.51153946904370
C           -2.97763565864365        2.71543023983149       -0.68000663911292
O           -3.81283442359792        2.72418120763822       -1.99605827493160
C           -3.76888287544570        0.28415260682679       -0.26804707444184
O           -4.61348320225293        0.22118457676033       -1.40482621155135
C           -3.29665666751571       -1.11533027514877        0.13593384154963
O           -4.36820808207157       -1.94426833424281        0.53625297829339
C           -2.33332058036587       -0.98916939096234        1.31581477683146
O           -1.80131527386255       -2.22095132448598        1.71619179434473
C            1.20538138109484        1.03433057376012       -0.52057817671559
O            0.59569568074602        1.50441597030187       -1.69331958083540
C            2.72978304384835        1.21641748020135       -0.59594677276495
O            2.99738841930065        2.58862569077623       -0.48226129226249
H            5.38945945404860       -1.12841094692942        1.39487927155992
H            5.39997307713601        0.41709052319931        2.29211755963137
H            6.62329151491805        0.11215831064617        1.02054853280933
H            3.13738613628571        0.82560395864416        1.50544639482745
H            1.44549761750539       -0.73154398143575        1.68473219357037
H            1.87285503167152       -3.09521648518730       -0.19736472868237
H            0.34493710194852       -2.81607913613046        0.69623919298846
H            1.57647349844753       -3.09372571960681        2.60278625286876
H            1.04542411495642       -0.93003443260362       -1.34963838978135
H           -0.50189343834991        0.08717807929590        1.73604453794642
H           -2.03399374263409        0.91344240795909       -1.40754835785165
H           -3.72464853027101        2.92927432001005        0.11946523944948
H           -4.58975003403010        2.11516014018985       -1.93783339830534
H           -4.08895063816149        3.65211595546425       -2.12664274506297
H           -4.39438654473751        0.68010028196784        0.54293012875314
H           -4.10423161498231       -0.13774082277827       -2.14820777637674
H           -2.74852424560437       -1.57839758584794       -0.69991345951868
H           -5.08183834839138       -1.86916767120051       -0.11505634586935
H           -2.86227256702249       -0.50822971146047        2.15460326417368
H           -2.54001065278629       -2.84403108904652        1.81278369120815
H            0.83192262598710        1.59109917903276        0.35186410845079
H            0.76556232623737        2.45551134383110       -1.77338114065606
H            3.08459055759604        0.82224064054346       -1.55944596092280
H            3.95388282804645        2.73245443327723       -0.54368643772153
