48
 energy: -84.743540250774 gnorm: 0.000371874941 xtb: 6.7.1 (edcfbbe)
C            5.52911461696238        0.14460409787719        1.43479232915040
O            4.74677027905840        0.68031586632741        0.36990684999748
C            3.37986320429673        0.50728201150332        0.52174288610716
O            3.07039038457915       -0.85903503531287        0.49686926153852
C            1.69862161621407       -1.14151446957031        0.73049006960102
C            1.64294907261887       -2.67448148737176        0.83586374943040
O            0.27021842331479       -3.18973450856062        0.41420462516655
C            0.84247853575542       -0.47182224979927       -0.38570529948181
O           -0.56012988846332       -0.67783158442308       -0.19272264321606
C           -1.19274745675929       -0.02262479205243        0.87297053102679
O           -1.69301054877033        1.24044368705329        0.53089320433684
C           -2.63224404824283        1.21961669671278       -0.54428252852420
C           -3.10041124075452        2.66192088909377       -0.75568289374918
O           -2.05706247387683        3.52185746501508       -1.12849709097408
C           -3.82515504174171        0.31061046400873       -0.22467887056111
O           -4.63919872930714        0.24875189419081       -1.36445986067172
C           -3.33932635518536       -1.08633250491919        0.19192450667072
O           -4.47318005269827       -1.83523739107408        0.56908562798992
C           -2.34500557047112       -0.92401704428295        1.35407077481870
O           -1.80892364688652       -2.14662570099119        1.79277996781227
C            1.18015196565014        1.01324075070188       -0.56231111780738
O            0.53707243704219        1.46117415103905       -1.73000454578095
C            2.69468805399525        1.22239527090477       -0.65075004287088
O            2.93087042451102        2.60587990006576       -0.63891631114744
H            5.34806558898125       -0.92624047584731        1.53599563622094
H            5.28319235791431        0.65095376975073        2.37255494991738
H            6.56123715129458        0.33557334133882        1.15709641751821
H            3.03294762255913        0.94845646629182        1.48400120342415
H            1.41676362855705       -0.67354604330231        1.69471054480576
H            2.29564603621338       -3.03913144466022        0.01791293249682
H           -0.03715216580363       -2.84871233625568       -0.45221347680714
H           -0.39195589872072       -2.88459468503465        1.09073282400639
H            1.05112003845792       -0.96054392566204       -1.34544432922505
H           -0.49930661355710        0.15934640028704        1.70237847207301
H           -2.13156781906488        0.85933838818129       -1.45240969045584
H           -3.57464731198419        3.01365996161697        0.17032400580678
H           -3.82854015890956        2.67651772098289       -1.56736452087780
H           -1.36950012771936        3.46076922978098       -0.45143876288446
H           -4.38490527572890        0.74042201150589        0.62220099226457
H           -5.36443985102980       -0.37166274227521       -1.18702838548382
H           -2.82483269827695       -1.54221833562148       -0.66106358142146
H           -4.29397507443875       -2.78160241210869        0.47669468536010
H           -2.84637395290778       -0.39800511706825        2.17555896465860
H           -2.43958865978807       -2.59274473018646        2.37771833408785
H            0.81909874250838        1.58200065383916        0.30983578291466
H            0.84345692036837        2.35847981207292       -1.92908627987389
H            3.07152107371726        0.76389475214490       -1.57729831727186
H            3.88624646601227        2.76579135552553       -0.66482560290263
