48
 energy: -84.853941050787 gnorm: 0.000533759084 xtb: 6.7.1 (edcfbbe)
C            5.61139074714965        0.02013179873197        1.23144605878251
O            4.78426167261957        0.59584471830002        0.22315209004533
C            3.42633251026860        0.45809729113197        0.44435836810936
O            3.07620608891932       -0.90635777994527        0.40513604140821
C            1.70233141138239       -1.13223288309376        0.63858896935552
C            1.45244300348749       -2.64170288129994        0.60339473925980
O            1.65089202541697       -3.11846751044602       -0.70530452831048
C            0.82717551773730       -0.41282315350571       -0.40814102183709
O           -0.55366067535938       -0.65585463982663       -0.19864344741696
C           -1.18046321021668       -0.08931407354867        0.91574058839085
O           -1.71135263602151        1.18158899797221        0.65059348419670
C           -2.63641241315739        1.19693625858603       -0.43859367133815
C           -3.06353260959868        2.65935413915812       -0.61655125009820
O           -3.79567194207268        3.14490988544163        0.48082522057255
C           -3.83923578274665        0.27372309636282       -0.14872579220622
O           -4.69145206223590        0.16641791031509       -1.26098877834929
C           -3.33166483989119       -1.13130212322789        0.19551289075843
O           -4.35699849239897       -2.03267568688006        0.52760488295906
C           -2.31518524402209       -1.03575828256564        1.34394677241716
O           -1.78748901412426       -2.28935244092209        1.67970633370805
C            1.18253400830342        1.07677814932147       -0.49277703174478
O            0.49732276879486        1.64972580249678       -1.57638573498582
C            2.69785544556008        1.23068125784614       -0.66353218879433
O            2.99009346574369        2.60242266122962       -0.62491934532442
H            5.44991730203710       -1.05681695782412        1.28639935833305
H            5.39682048787954        0.47761014758089        2.20138361581978
H            6.63037144027894        0.23763889983304        0.92591312052888
H            3.14375042609757        0.87480435538687        1.43772128387093
H            1.45115491715631       -0.76138067792688        1.64627449021998
H            2.15623581178245       -3.11636744061205        1.29793289289913
H            0.42270928784181       -2.80917084044664        0.93902645182846
H            1.41496671789134       -4.05653014103916       -0.73506664189918
H            1.01818601770267       -0.87241396259874       -1.38393388177753
H           -0.48621059150066        0.05782472025252        1.75154383013234
H           -2.13006296764887        0.85208891669982       -1.34868722400970
H           -2.16201821252125        3.25691350699939       -0.78295703271020
H           -3.71120568139158        2.74738460469452       -1.48920390049674
H           -3.21697456784706        3.14348450857534        1.25570721991920
H           -4.38259406173388        0.67765833040341        0.72029735058967
H           -5.20482586875244        0.98062815417291       -1.35821894077772
H           -2.83166489146006       -1.55417287332794       -0.68174672932669
H           -5.01231886702692       -1.59816896819061        1.09311701275208
H           -2.80475895124935       -0.58822621213926        2.22602106130401
H           -2.50049944824060       -2.94338194969776        1.57344627010372
H            0.88801034469127        1.58498477255948        0.44066035354947
H            0.91264482224664        2.50523222384819       -1.76997285808496
H            2.99841636735500        0.78626672712260       -1.62349754674836
H            3.94686942644338        2.72845962178960       -0.71585221883103
