48
 energy: -84.742034983997 gnorm: 0.000501868227 xtb: 6.7.1 (edcfbbe)
C            5.74806810444590        0.01487756038283        0.79984779920320
O            4.75410885594729        0.57470668231467       -0.05260143521398
C            3.45979722474345        0.47533743205626        0.41581652469988
O            3.05598496140145       -0.87898549929788        0.33965294049684
C            1.69933811489673       -1.09716548435990        0.68745790996901
C            1.44397076308185       -2.60855571381711        0.66127603768639
O            2.14321830989553       -3.28482136560747        1.67190358218569
C            0.80222179628515       -0.35091311120944       -0.31376694467503
O           -0.57609520726600       -0.66872484573251       -0.21613921809044
C           -1.26259003368524       -0.21538695914311        0.91933054718730
O           -1.79108738419285        1.05901349365371        0.68930938074534
C           -2.65580914058971        1.10605964608698       -0.46271914123739
C           -2.82617814393637        2.58437605826488       -0.74581140845913
O           -3.32993252734880        2.66804874072250       -2.26105309294876
C           -3.89478727686153        0.23334995622787       -0.15766828985350
O           -4.79322909811195        0.17777016843103       -1.24480923479621
C           -3.42715266368005       -1.20004403734769        0.11422766127587
O           -4.48687576386458       -2.04366651580456        0.50609170258627
C           -2.39837914367178       -1.20090426933172        1.24705451297173
O           -1.85128266031703       -2.46974804071326        1.47105439732850
C            1.09329460267187        1.15926389002093       -0.17935927652629
O            0.37442603010179        1.95217611088083       -1.08868625960055
C            2.58786853073439        1.39710640661038       -0.44797289447262
O            2.94442882695663        2.71548080333227       -0.13710846756361
H            5.62684205125486       -1.06663408741129        0.87319925068659
H            5.69178909806252        0.46333294745198        1.79546185588903
H            6.69691655158737        0.25737040482525        0.33060077566092
H            3.39028095758452        0.81531990047884        1.47143055900052
H            1.52806119862147       -0.72237597216534        1.70937043304531
H            1.71695166294499       -2.99107235185647       -0.32866190673332
H            0.38207995627430       -2.78560418300148        0.84384977409291
H            3.09175968010128       -3.15436658208435        1.53001436770156
H            1.06588897807662       -0.67717017028949       -1.32555512833580
H           -0.60518928444599       -0.12560813949217        1.78980702004662
H           -2.13474845165853        0.62313526785263       -1.30572544139751
H           -3.72252285277870        2.94225145569761       -0.20628184615037
H           -3.39244024279653        3.63269060954571       -2.42846835209572
H           -2.58928216074098        2.32781379292334       -2.80358549941893
H           -4.40020630349388        0.61949885437038        0.74341718794203
H           -5.06763450990574        1.07788037094504       -1.47517297822316
H           -2.94752816863324       -1.59219534497374       -0.79581388450345
H           -5.18962648396219       -1.97073341747757       -0.15666870973866
H           -2.89610151277741       -0.83072461435168        2.15898073873963
H           -2.58396693931252       -3.10520578377108        1.51964295838631
H            0.87607919011633        1.47418176120593        0.85115372026313
H           -0.50032718429507        2.17479432425353       -0.71371783091962
H            2.80437367541338        1.17217377068131       -1.50190550203326
H            2.38277001595692        3.30923409000705       -0.66246688506502
