48
 energy: -84.850627307765 gnorm: 0.000840830562 xtb: 6.7.1 (edcfbbe)
C            5.70261845418961       -0.03021298934592        1.00919936978861
O            4.78262191314377        0.48410315394793        0.04981233757775
C            3.46056782617717        0.43614511296671        0.44046167274562
O            3.04037575369345       -0.91233232673497        0.42033640776281
C            1.67077275635788       -1.10992785791945        0.72433386256241
C            1.45738175130036       -2.62993203405879        0.79844510713058
O            1.52205064690881       -3.25201601253446       -0.45571093976101
C            0.82088000165343       -0.41917267850109       -0.36154867891811
O           -0.57062265300096       -0.70341249151977       -0.30351350409190
C           -1.32128389891707       -0.17588507433585        0.76090616044246
O           -1.84357808219274        1.08960024942563        0.45520563131645
C           -2.83447551360899        1.12893920884297       -0.57635941595013
C           -3.30524779694940        2.58872532326078       -0.66690529538963
O           -3.76417381749302        3.07358607388081        0.56695166113931
C           -4.02377143878167        0.19743391884963       -0.27589547476445
O           -4.96195485760820        0.24446925214676       -1.31536741393619
C           -3.49301006762169       -1.21648485235197       -0.02186222131726
O           -4.56328749483186       -2.05857999228698        0.32213596426302
C           -2.43741875255278       -1.18997348112763        1.09197811818777
O           -1.91501267043371       -2.47409049388233        1.30004125576468
C            1.14318135521487        1.08416188748502       -0.32298428242148
O            0.48383828811948        1.80777149704965       -1.33249023225986
C            2.64924690911224        1.30214285695227       -0.53128046060990
O            2.99591062848848        2.63662920171582       -0.28595949429729
H            5.50820355304702       -1.08705291909705        1.19948396986045
H            5.63112430588862        0.53507744888267        1.94261661705259
H            6.68443206301419        0.10094023426641        0.56445201750237
H            3.33166632197929        0.84377745991223        1.46580543233630
H            1.45406909886135       -0.67204192969829        1.71156481467064
H            2.21585917810965       -3.03592777641290        1.47812901090365
H            0.46843980099617       -2.83728603425004        1.20720136039829
H            2.41900832668164       -3.15176472328735       -0.80489728385320
H            1.11145012546839       -0.82448121118448       -1.33650781708594
H           -0.69866199259246       -0.01871007130864        1.64883201436258
H           -2.38902783251104        0.82159080599406       -1.53335719427845
H           -2.49118480500894        3.21726479652393       -1.04810813919396
H           -4.15341292261699        2.63673895264614       -1.35153786442212
H           -3.04716610453672        2.99427248992837        1.21294883807908
H           -4.55349672777803        0.55590204951065        0.61320687280871
H           -4.65290527912767       -0.27976256922018       -2.06893993098663
H           -3.00655045528022       -1.58173247123515       -0.94504332240470
H           -4.21001343643013       -2.86213850010057        0.73572535297770
H           -2.91266028772569       -0.89394523614821        2.03216224052323
H           -1.50349453994754       -2.77218479262450        0.47198001179049
H            0.87543707423329        1.49004363928951        0.66489162915308
H           -0.45446643434179        1.85995610509433       -1.10320948420205
H            2.91777739971646        1.00586098475562       -1.55430719655800
H            2.52898833520221        3.19735675270295       -0.92575108880225
