48
 energy: -84.855297505829 gnorm: 0.000865149186 xtb: 6.7.1 (edcfbbe)
C            5.67285961447647        0.03260031164839        1.01193967031894
O            4.78377032703145        0.57414456286801        0.03800669981298
C            3.44902123432567        0.48615113206526        0.37861307179183
O            3.06786449435284       -0.87255180300792        0.34645800404331
C            1.71389084439630       -1.08943640863806        0.68422404273038
C            1.47201909651557       -2.60526087820129        0.74641299458297
O            2.08419751619932       -3.21530883101933        1.85157894536539
C            0.81232151730474       -0.42314861610021       -0.37492987563166
O           -0.56913043010260       -0.68498960695101       -0.17786837287645
C           -1.20743792223308       -0.09760644858496        0.92372377246772
O           -1.74669238207213        1.16053144399094        0.62970668350451
C           -2.67456817992815        1.15236858172751       -0.45236398809590
C           -3.13851717723843        2.60132526626197       -0.64226480072919
O           -3.69736842104348        3.13714679767856        0.52956431876168
C           -3.85832280720824        0.21817706004492       -0.16711837920062
O           -4.63895200920838        0.15564041058900       -1.33377134075451
C           -3.35094251874163       -1.17350094195639        0.23808902975000
O           -4.40781395873538       -2.03447967379946        0.58957163917848
C           -2.33132227087534       -1.04838351655613        1.37574682416097
O           -1.77472729731219       -2.28361106264391        1.73308483359368
C            1.13263744857416        1.07599072181893       -0.48576511637661
O            0.43554848127173        1.69460643855211       -1.53742292903391
C            2.64811591115113        1.31185633386679       -0.63751949691948
O            2.95873743588511        2.66252348974261       -0.42528435252467
H            5.46209274915835       -1.02607548403649        1.17351917621034
H            5.57767794504744        0.57935235942938        1.95451315898869
H            6.66777172936353        0.16499938369481        0.59790650070552
H            3.26978465981748        0.89681480376312        1.39574466253061
H            1.52107949990035       -0.64296502597638        1.67368189500428
H            1.92520522846064       -3.05978060638560       -0.13625611888730
H            0.39060124242343       -2.77616597669355        0.74440376024929
H            1.59830141587218       -2.99183854816928        2.65830424489100
H            1.02234305945316       -0.90633651737350       -1.33697844158397
H           -0.51378283251513        0.07026553346843        1.75496500190233
H           -2.17533314882977        0.81109901576223       -1.36658953004619
H           -2.28216652118810        3.19774807124717       -0.97646234406513
H           -3.92073514070178        2.61886038550539       -1.40197769338893
H           -3.01389255712316        3.13263634214167        1.21483673033537
H           -4.44704905248636        0.64750842271580        0.66203035826341
H           -5.26661590157540       -0.57941827311857       -1.25045234657284
H           -2.85833118768454       -1.64070518119200       -0.62149041457332
H           -4.91618518080554       -1.64953675552332        1.32043655737595
H           -2.81938887357178       -0.58558656326807        2.25077896066175
H           -2.47356884537511       -2.95832212788912        1.68582953291355
H            0.79332110518662        1.59254364105445        0.41946940742008
H            0.65716359106178        1.26156277244487       -2.37613521772710
H            2.97717771841325        0.98861265071743       -1.63735699816024
H            2.40469575595581        3.20514192746976       -1.00968587460242
