48
 energy: -84.743980560562 gnorm: 0.000683787813 xtb: 6.7.1 (edcfbbe)
C            5.67481171311726        0.05436499861671        0.98818263128635
O            4.74179288525064        0.54989171987268        0.03112851432043
C            3.41924907025290        0.46700059647980        0.43341418306997
O            3.02454057642259       -0.87663817348738        0.39290335143045
C            1.67281058740312       -1.09191143515720        0.81387877987005
C            1.50226287787514       -2.55431921258727        1.14705205932992
O            1.67998534923128       -3.37184072690564       -0.14367265761268
C            0.78406802125520       -0.42913079359463       -0.29138880676028
O           -0.60928805955125       -0.72251925395404       -0.18200709834720
C           -1.30780367664002       -0.16494061201306        0.89173860517406
O           -1.84244338416228        1.09632887459357        0.59042132569880
C           -2.71681844984945        1.10631057974460       -0.53511873918740
C           -3.15424209772538        2.56419237138196       -0.73037700330656
O           -3.73232112108583        3.10409880210984        0.42892127955814
C           -3.91703329344706        0.17545948924689       -0.30764788340407
O           -4.75693385133523        0.10653591068531       -1.43162768231061
C           -3.42492311688053       -1.22358388465808        0.08986491725296
O           -4.49022524212155       -2.06070143327639        0.47286031124466
C           -2.45681852511461       -1.11943157675661        1.27209658820014
O           -1.92503896367158       -2.36173894302714        1.63008128077850
C            1.07957413349260        1.07343215363062       -0.37527242549880
O            0.37533544885904        1.70670093842911       -1.42075305952228
C            2.58964157599676        1.33018896301476       -0.52946532701573
O            2.89669700128080        2.67333903771312       -0.26489086298458
H            5.44654127533667       -0.98122553330853        1.24406740905169
H            5.65104384523949        0.67086436813807        1.89128158749316
H            6.64565260362475        0.12638073808715        0.50746190911594
H            3.28962218992770        0.86473718321221        1.46251377100257
H            1.50729817382648       -0.55162119088055        1.76090169561790
H            1.08820518928346       -3.10340366647289       -0.87795592598010
H            0.44309174865995       -2.70472660281446        1.40537362644471
H            2.61759701573208       -3.23684963997290       -0.38735584536254
H            1.04965603714834       -0.87488654476763       -1.25936711182093
H           -0.65845698788558       -0.01608669295619        1.76124181710010
H           -2.16005899424364        0.77411113242314       -1.42181882484855
H           -2.28002791575149        3.14909007750170       -1.03981135663642
H           -3.92233225236437        2.60709359974307       -1.50416946577043
H           -3.08357825246495        3.04230613926322        1.14385839920400
H           -4.53628579964976        0.58288770243078        0.49964045395869
H           -4.24505595311656       -0.16552971218036       -2.20840505603265
H           -2.88045480619565       -1.67250273334153       -0.75711781728439
H           -5.22959760011523       -1.92035623693861       -0.13846484090332
H           -2.99132766892661       -0.66768389644692        2.12278652935844
H           -2.66161189326466       -2.98486008530474        1.73953673555858
H            0.73294363094149        1.56577459669377        0.54032094361383
H            0.65453995484771        1.33123862192343       -2.27063780263694
H            2.90686090121654        1.05859792883866       -1.54977016941397
H            2.31921710748586        3.23783699271764       -0.80378597239510
