48
 energy: -84.741667174684 gnorm: 0.000547888888 xtb: 6.7.1 (edcfbbe)
C            5.33643236187711        0.26671696179302        1.71908849600940
O            4.63754760463003        0.72168295757587        0.56245361301037
C            3.27114462744776        0.49694232106832        0.59512039669239
O            3.01957398983141       -0.88127197102426        0.58023211868449
C            1.64998467241841       -1.22499870152639        0.72221178684242
C            1.68904258721747       -2.75518828694478        0.72479673633519
O            0.25010335169368       -3.28522526865715        0.37407723711958
C            0.79890051768393       -0.56843867663009       -0.40414437823253
O           -0.60595309114492       -0.72927510544824       -0.17500586610284
C           -1.20396830501249       -0.01683586927711        0.87446299663503
O           -1.67607420122387        1.24685308710395        0.47361491652175
C           -2.61503858662760        1.19485891798111       -0.59467298223050
C           -3.00212616392212        2.63935573626634       -0.93293830275273
O           -3.62894126450581        2.75153001470816       -2.18060947189837
C           -3.84320120053133        0.36377802377252       -0.19571041476692
O           -4.71068366123927        0.29026944136977       -1.29845561805126
C           -3.40089330668935       -1.02721637282094        0.27113433589286
O           -4.54066577288234       -1.73219247786701        0.70038956200592
C           -2.37563307818664       -0.86331924132778        1.40355444387333
O           -1.97014563638122       -2.09810933996024        1.91714887430938
C            1.15068759803382        0.90685271837097       -0.64960036253766
O            0.57803902777704        1.27637274552639       -1.88116832411433
C            2.66448385206955        1.13430547904654       -0.66011833824512
O            2.88587213052364        2.51849694635528       -0.71887368101041
H            5.19820129358269       -0.80763174705492        1.84670605782852
H            4.97622324357782        0.79419815211495        2.60695644642862
H            6.38048240167828        0.50056672521662        1.53430297376950
H            2.81891409613866        0.95035990731835        1.50596773654978
H            1.29164027922565       -0.83291491588987        1.69167830742549
H            2.29261383119927       -3.01583301443368       -0.16715547990128
H           -0.00270548745372       -3.16216033571191       -0.56565527925262
H            0.32528523246556       -4.24357902140430        0.57583663669514
H            0.97107237884112       -1.08990538104549       -1.35335342656055
H           -0.49605446229808        0.19238329525054        1.68505894346114
H           -2.14264345489287        0.74052871178219       -1.47705279805100
H           -2.09300169094385        3.24192777372690       -0.97857356311238
H           -3.64303730770252        3.03501917519414       -0.13265671946371
H           -4.33437027281975        2.08379914745730       -2.22717236957983
H           -4.34721025154880        0.85944646427166        0.65075703393796
H           -5.41520039758913       -0.34256251666874       -1.08788906829357
H           -2.92696269366976       -1.55147102940369       -0.57237381696610
H           -4.25141350849712       -2.47303249064766        1.25579383136241
H           -2.84777345769070       -0.31450240391917        2.22720819088312
H           -1.20591868014942       -2.42483439544106        1.41086151541366
H            0.73139501613683        1.52738205964142        0.15815023413563
H            0.88288340295472        2.16902521220770       -2.10144608084327
H            3.10727351198087        0.62738809078991       -1.53121497624231
H            3.83845888895784        2.68721938145521       -0.65932916673588
