48
 energy: -84.850091965050 gnorm: 0.000988540342 xtb: 6.7.1 (edcfbbe)
C            5.62841052897174       -0.00222930198837        1.11878889287707
O            4.75105682989903        0.60224546692332        0.17107541990624
C            3.40601490168680        0.46690346700342        0.46430211447035
O            3.05198086636230       -0.89519917324521        0.40691350110511
C            1.69310925877576       -1.12319513505009        0.71810580564536
C            1.45868951489709       -2.64074005225197        0.73246703978488
O            2.22505553928846       -3.30850166662599        1.69812636261209
C            0.80365776247625       -0.43491167250724       -0.33543925452147
O           -0.58024080005436       -0.69549087573574       -0.15910576967412
C           -1.24613396659946       -0.13416358155706        0.94069146968065
O           -1.78446378876557        1.12949445184771        0.66421591645136
C           -2.65641178299539        1.14711249706872       -0.46364105666184
C           -3.14854639339440        2.59196874495284       -0.61136041797244
O           -3.74419948640762        3.07480744692363        0.56583544388735
C           -3.83674751957167        0.16848798422427       -0.29767640511802
O           -4.61573724959752        0.13229936119887       -1.46221056483209
C           -3.32276938336778       -1.22280314123079        0.10166862865221
O           -4.42621826570872       -2.04625626634440        0.38275014965314
C           -2.39869148129879       -1.09066478717532        1.32379058823226
O           -1.92059519956402       -2.36017377095978        1.69764007081283
C            1.11979766691594        1.07298820006749       -0.43857503569691
O            0.40339056256942        1.66839352652952       -1.48548568964776
C            2.63363883765929        1.28739082392136       -0.58471026966337
O            2.89832623067109        2.65588041288133       -0.44125905652277
H            5.44361685822481       -1.07552985166179        1.17790858903325
H            5.49168017949763        0.45371114498403        2.10334804464569
H            6.63026496840022        0.19135375294402        0.74766874560673
H            3.17971757004725        0.86116034509649        1.47966848351417
H            1.48625709050589       -0.70030006309454        1.71575051540011
H            1.77812738424733       -3.04979891502878       -0.22729197359390
H            0.38533856528096       -2.82092768425174        0.86861640145117
H            1.96622667918483       -3.02309704616569        2.58553334440149
H            1.01841499482622       -0.90210610457559       -1.30418681833683
H           -0.57367507453603        0.01934425803638        1.79223426613428
H           -2.08385479368908        0.87146964539448       -1.35824613194795
H           -2.29910166238779        3.22016193470928       -0.90492114541389
H           -3.91885277721953        2.62390066562310       -1.38327767858480
H           -3.08491047063783        3.02569109400130        1.27272524311658
H           -4.50742082766216        0.53752120198349        0.48671588504885
H           -4.12859411552873       -0.31823973364915       -2.16783294958046
H           -2.72860004932859       -1.64259710961115       -0.72410772353364
H           -4.09908811665209       -2.92947432883847        0.61181607091868
H           -2.96631730973509       -0.61767322590858        2.13188907703690
H           -1.99486527713092       -2.47544359752043        2.65522293055890
H            0.77994261406307        1.59148909948379        0.46474365019188
H            0.79555767644293        1.42095863785054       -2.33677386356881
H            2.95822822505828        0.92488733992938       -1.57281625444530
H            3.84822348812656        2.81147756467519       -0.55899460570830
