48
 energy: -84.733710644167 gnorm: 0.000380068434 xtb: 6.7.1 (edcfbbe)
C            5.74793253123386       -0.10684207490749        1.02876761164264
O            4.84556028947822        0.45013944337508        0.07511189272283
C            3.51698506597156        0.41137108974979        0.46010306567998
O            3.07335763208572       -0.91779891511680        0.43420972625224
C            1.70733138086432       -1.08308371912071        0.83098980290177
C            1.48402136156015       -2.54810205797498        1.12731598090247
O            1.68687119177644       -3.33025086002937       -0.18086684250059
C            0.86125881079768       -0.37809522498200       -0.28154658498778
O           -0.54235670221049       -0.64228814821926       -0.21332509730006
C           -1.26396777581623       -0.08190365754603        0.84245198600645
O           -1.76315132290844        1.18992163718450        0.49825115202481
C           -2.73406732598102        1.19295053450007       -0.54989681019956
C           -3.23482660502327        2.62994736356002       -0.70939195190935
O           -3.89942235772285        3.02120500632597        0.46835398260083
C           -3.90627636357374        0.24612715388600       -0.27311151724344
O           -4.70790838961954        0.22590493942876       -1.42564896866007
C           -3.37538888212673       -1.15097754868011        0.06036535599845
O           -4.48289020477207       -1.97050197181980        0.35527672539961
C           -2.41401623463552       -1.01814132737941        1.24956307209083
O           -1.87879245911370       -2.24910885484188        1.65415120642560
C            1.20953535224904        1.12107024487709       -0.26064802382623
O            0.51338418683890        1.85273286739828       -1.24315551781047
C            2.71510612895746        1.30067015184011       -0.51372621739325
O            3.11109853660593        2.63919142268126       -0.43461991810649
H            5.48189050929664       -1.14121842668309        1.24946452223254
H            5.73310928026195        0.48133290784959        1.95104199478910
H            6.72713495988211       -0.05305614201143        0.56310617355400
H            3.39573314646279        0.80952004617216        1.49412962112177
H            1.54316127778079       -0.55192218451401        1.78288786200761
H            1.12871850916309       -3.01409502206115       -0.92249620524739
H            0.41058643288031       -2.67106428583729        1.33636283863696
H            2.63332536906899       -3.20056492257366       -0.39144713436012
H            1.13972898293721       -0.76921072057522       -1.26545206888065
H           -0.62285322825002        0.08592758316081        1.71625809029578
H           -2.26833211534513        0.86944552100166       -1.49262882934526
H           -2.37681010218702        3.28406296597061       -0.90572561993330
H           -3.91395696589425        2.64119207825336       -1.56945326655093
H           -4.23109877834919        3.92359552296314        0.35665287802627
H           -4.47520870426925        0.62180984452425        0.59016854863512
H           -5.41266150913471       -0.42633992438659       -1.28777438340498
H           -2.81818483039641       -1.53798887546475       -0.80265242528586
H           -4.21604554080790       -2.90034373887808        0.32745796314306
H           -2.94169389627410       -0.52292574684413        2.07622363989978
H           -2.52251119135913       -2.71634076034710        2.20770729969912
H            0.97451141125280        1.52736498106255        0.73701601824251
H           -0.39605576512090        1.96517670453027       -0.93007642193063
H            2.95080448367471        0.99346420084554       -1.53687719488753
H            2.87255642780183        3.01276393231215        0.42697300556605
