48
 energy: -84.751018535887 gnorm: 0.000643905143 xtb: 6.7.1 (edcfbbe)
C            5.47401417624367        0.18350051183780        1.41517921825469
O            4.68883994253007        0.69198454148881        0.33943219333004
C            3.32391676284628        0.52936770332954        0.49099371674826
O            3.01110537111376       -0.84388387818983        0.52053518636164
C            1.63031692618282       -1.09541298973357        0.66846289408194
C            1.42733213786329       -2.61029351533971        0.74068414579250
O            1.75267226732206       -3.18716033915896       -0.50048828427802
C            0.82277090987670       -0.49016941359005       -0.49809538748386
O           -0.55953932695445       -0.78159589245407       -0.39442366036734
C           -1.31387426371135       -0.16978745299217        0.61831443960168
O           -1.86796453948942        1.04342687308588        0.21748422693796
C           -2.74722160524150        0.92159221376034       -0.95419019187289
C           -3.25398606538808        2.24615685412861       -1.45237056308920
O           -3.58422549422604        3.10673487469706       -0.21086446479953
C           -3.91117802280025       -0.01408939206380       -0.59092765684022
O           -4.77164147572199       -0.17342507015371       -1.69024497942526
C           -3.36246219594790       -1.37499952838045       -0.15950312464617
O           -4.38112233921236       -2.25801716389138        0.25393312934268
C           -2.42487206531319       -1.15655421472912        1.02954199032167
O           -1.84106598327652       -2.34536905235513        1.48507287672425
C            1.13163102060885        1.00514032269262       -0.64730134795505
O            0.52280227080743        1.48660663182681       -1.81599020560266
C            2.64908418505353        1.21332653159161       -0.70497063048697
O            2.88405057658888        2.59655030561559       -0.71159484004654
H            5.32753785797960       -0.89207969420570        1.51716477542118
H            5.20521403008355        0.68525879810881        2.34888396322250
H            6.50293177616599        0.40413566043880        1.14743664854512
H            2.97179884773674        0.99949742112534        1.43734469081267
H            1.29098953619474       -0.65280661768957        1.62012159248604
H            2.08131415684859       -2.99988558553588        1.53071776839397
H            0.37774548119123       -2.78609765439133        1.00209729405042
H            1.54460652091958       -4.13194294087695       -0.47003596146558
H            1.11988568524615       -1.00139462118344       -1.42001740746381
H           -0.69705493372415        0.06043304817113        1.49787830961002
H           -2.17632730808470        0.45245702789358       -1.76544905666547
H           -2.40007844819580        2.79474910415691       -1.88005112187318
H           -2.96056459344586        2.86201944688313        0.50395123556308
H           -4.50399436986265        2.90884800230419        0.05476373889740
H           -4.48005748937898        0.39699794865144        0.26232417446469
H           -4.74161419966739        0.66584576415789       -2.19095948422163
H           -2.78743372392588       -1.81248765440253       -0.98907216045497
H           -5.06227382709830       -2.26930897330867       -0.43492500965422
H           -3.00385667759513       -0.69090299574839        1.84507693973828
H           -2.54240597942963       -3.01734282959539        1.51235798379837
H            0.74342342459185        1.55308140147152        0.22795185270529
H            0.89801055217787        2.36156077258809       -2.00599880389888
H            3.03931846655636        0.73850757134930       -1.61672760624989
H            3.83893204681747        2.75786292946659       -0.75532410112019
