48
 energy: -84.738766011283 gnorm: 0.000357203029 xtb: 6.7.1 (edcfbbe)
C            5.82593101370742       -0.04681487537703        0.70691362913841
O            4.86552045579306        0.59814872820644       -0.12675582267922
C            3.56782851556442        0.53465696564983        0.35086750840986
O            3.15247252715376       -0.80116822858904        0.39618684395228
C            1.79858865121083       -0.95135374086417        0.86565217767619
C            1.54881469622285       -2.38104128957041        1.27656010987343
O            0.84193647636502       -3.09525854358960        0.09577505573564
C            0.94225449151925       -0.32765444660744       -0.26927511621175
O           -0.43601014911944       -0.68946320929936       -0.27865238318253
C           -1.26039785168912       -0.19934994832903        0.73448787260753
O           -1.83895329370805        1.03574280957347        0.38622315285884
C           -2.75899365997688        0.98947307854861       -0.71348434509171
C           -3.24544852314141        2.42460411912451       -0.98268370578418
O           -2.58927831802494        3.04852280832876       -2.05555114575597
C           -3.92069653741332        0.04369292968927       -0.38063888590653
O           -4.89894464695691        0.00393181601719       -1.38331082031345
C           -3.34383208502934       -1.35223800050531       -0.11285594568039
O           -4.33745040577157       -2.27115582948443        0.27214875178705
C           -2.32618715647215       -1.27320866500197        1.02801614456974
O           -1.67222171177460       -2.50257562770155        1.19926403319849
C            1.20630161539976        1.18380725588705       -0.25857405406988
O            0.42380289647774        1.88524831903878       -1.19350088740537
C            2.69190414719753        1.41176781749174       -0.57460029924310
O            3.05390872412730        2.76057363697045       -0.49929065646525
H            5.57397615111232       -1.10123842750421        0.82759574657041
H            5.86094707606784        0.43896261413538        1.68683296093627
H            6.77455161465265        0.06834885416689        0.19181254948553
H            3.51634416344509        0.95537774412364        1.38687269961871
H            1.72138700833792       -0.32675049812762        1.77587697510416
H           -0.12929135617478       -2.93468690774684        0.18033049667328
H            0.76598829727352       -2.33928382353746        2.05642872785232
H            1.03593325261036       -4.04577382574256        0.22167621307924
H            1.30508886908061       -0.74618553182446       -1.21415071478810
H           -0.68900306704353        0.00288758891269        1.64907926283688
H           -2.24135567134245        0.61007598645594       -1.60833878315193
H           -3.14691900125078        2.99832720958236       -0.05492256350415
H           -4.29887440549312        2.38690515351092       -1.26940059612359
H           -1.67385781158648        3.26622251997308       -1.82882782992111
H           -4.43272286677211        0.40022108407360        0.52062513933410
H           -4.48819100025593       -0.16104779765914       -2.24569844494069
H           -2.82773663661281       -1.71095370844407       -1.01855896608297
H           -5.13004443277919       -2.11739054816871       -0.26471660884464
H           -2.85664095387487       -0.98559121026376        1.94676395408004
H           -2.35376660918452       -3.18187052677575        1.33780578383590
H            0.99945890196231        1.57864740935497        0.75249630400277
H           -0.49495983740812        1.79036887682430       -0.89229204484746
H            2.88862793491670        1.11893520992739       -1.60988165653691
H            2.90475952281617        3.10193376138525        0.39544218363492
