48
 energy: -84.846623414579 gnorm: 0.000663036809 xtb: 6.7.1 (edcfbbe)
C            5.63554730131432       -0.01372619056282        1.17238773905960
O            4.78116487753166        0.59920915164448        0.20869349717293
C            3.43028594775220        0.46656163123202        0.47394175842822
O            3.06511202038324       -0.89197109554745        0.38774891082723
C            1.69877823754586       -1.10815171441023        0.67397276622763
C            1.44919448050124       -2.61505227930071        0.68633349616523
O            1.91077175215006       -3.13197910795390        1.91374768528277
C            0.82231433759158       -0.39425640066659       -0.37555175876651
O           -0.55757067035767       -0.66777235067695       -0.21303009427631
C           -1.22959209180100       -0.13420026154462        0.89681170483779
O           -1.77365645861955        1.13094282096133        0.63975214431646
C           -2.65827362653008        1.14318498834376       -0.47868144903933
C           -3.11103132387432        2.59204718887903       -0.68150879693566
O           -4.15325920788733        2.90824553704190        0.21587260258968
C           -3.84739274094734        0.19125858516419       -0.24477735614873
O           -4.66262263514780        0.10359194594064       -1.38687118126843
C           -3.33956550800165       -1.21985310232633        0.09354795834659
O           -4.39022953249550       -2.10862473366722        0.35683034747770
C           -2.35843650561685       -1.12353442311100        1.27565931365430
O           -1.84996525531284       -2.39661562072636        1.57191417998233
C            1.15836889645005        1.10380845117617       -0.41664445379974
O            0.47357922672359        1.69400301327423       -1.49118622460399
C            2.67333231264871        1.29031651286567       -0.57796889493335
O            2.94300859829876        2.66201930192455       -0.45741858464126
H            5.42503209009718       -1.08135127823455        1.24252366435677
H            5.49690297595982        0.45514963858741        2.15058976263744
H            6.64513803057754        0.15383253659566        0.80975254943940
H            3.18665023134418        0.84505073200526        1.49122936205341
H            1.48329447283019       -0.71169017563927        1.67918798659653
H            1.99407324392625       -3.05224256478291       -0.15684808933702
H            0.37203842197434       -2.78635650997949        0.56853828800888
H            1.84673690291693       -4.09739411882482        1.89239521432167
H            1.04411368428139       -0.81813346531943       -1.36148365455581
H           -0.55483312413707        0.01124859899921        1.74926349407006
H           -2.10611257683039        0.81398448256877       -1.36880470803459
H           -2.23531499016297        3.22387447607835       -0.51202749468014
H           -3.44903140356100        2.70990653233354       -1.71831112983531
H           -4.25999286581546        3.86873562851302        0.25203774262935
H           -4.41992222221953        0.56960785846207        0.61541670167136
H           -5.21657615288834        0.89498750438594       -1.44181239235004
H           -2.81365598835384       -1.63853094762803       -0.76887629682438
H           -4.95274885072298       -1.75505058899524        1.06273458068050
H           -2.89183875491083       -0.69283968278518        2.13378617611405
H           -1.66904924172326       -2.47284241131766        2.51961845625161
H            0.84964064887054        1.58096256442159        0.52765729540884
H            0.84620407469877        2.57939336794938       -1.62991104879858
H            2.97581817084391        0.91469273019691       -1.56673482565014
H            3.89710379160312        2.80819022127265       -0.54666395807080
