48
 energy: -84.749028833651 gnorm: 0.000331199397 xtb: 6.7.1 (edcfbbe)
C            5.52948901578633        0.17056229608008        1.39527607451518
O            4.71581030954328        0.72861485827431        0.36589402995833
C            3.35440914201258        0.53544352433607        0.54352894812455
O            3.06263260892911       -0.83433625353264        0.50490534672854
C            1.69762721979330       -1.13950206106553        0.74880947757734
C            1.67103892403630       -2.67318912578347        0.83837326510296
O            0.29569681677577       -3.21064305560628        0.45873534663771
C            0.82151063130873       -0.46934559858222       -0.35287428158405
O           -0.57468203316913       -0.71350277318557       -0.16003326483053
C           -1.21844317716747       -0.09374910687017        0.92061392667847
O           -1.74530341533028        1.16129626423913        0.59097570156201
C           -2.66757216679105        1.13571649657692       -0.49905926319321
C           -3.16345553573748        2.57632575593961       -0.68292587095321
O           -3.74852327809780        3.08763677383027        0.48629940994058
C           -3.84547250804664        0.18625848885113       -0.22129875110585
O           -4.69237863154070        0.06376632968994       -1.33532501289291
C           -3.33909836446264       -1.19323198904247        0.22759904368675
O           -4.38897263095224       -2.01889832690773        0.67117366689332
C           -2.35506170233489       -1.01909999406946        1.38652377311417
O           -1.81664559145302       -2.23918907725694        1.82071912169691
C            1.12977594775811        1.02596516618967       -0.49584033779564
O            0.46385675953229        1.51129883961882       -1.63777230460825
C            2.63932430359790        1.25395524015044       -0.60836415869228
O            2.85955744231123        2.64010561357473       -0.59377842546271
H            5.36049206719170       -0.90432290822078        1.46997312325090
H            5.30293953422600        0.64717697652607        2.35317674543850
H            6.55238222494947        0.37952869133646        1.09704634523881
H            3.02061249254579        0.95913773103822        1.51802695705453
H            1.41627261095150       -0.68736302070216        1.72045395070308
H            2.30214445269674       -3.01928501513101       -0.00457013005424
H           -0.04111036956791       -2.87588295054107       -0.39935083485771
H           -0.36217431534213       -2.92121769839684        1.15054073259678
H            1.03887502799313       -0.93743082991140       -1.32099448286431
H           -0.52935421506446        0.09027045490845        1.75214174939033
H           -2.13445157716565        0.81428721799172       -1.40485251921093
H           -2.32286937634080        3.20118053505300       -1.00303605277795
H           -3.94221565974195        2.58995069738849       -1.44702189210618
H           -3.08143002133457        3.07646169666048        1.18742592605150
H           -4.46640754881627        0.61663071167136        0.57339059759451
H           -4.17889838487958       -0.21190737096266       -2.10944247131265
H           -2.81157087969049       -1.67166438393998       -0.61278080543309
H           -5.13598874832438       -1.93101866284282        0.06080636507753
H           -2.87426723140586       -0.51752529893675        2.21504548049700
H           -2.55618016008484       -2.84010458224105        2.01225087358208
H            0.77535667283555        1.56678118773246        0.39674372850856
H            0.82195806403776        2.38940092672416       -1.83931732665215
H            3.00628587865162        0.80639315677878       -1.54466764264518
H            3.81310535848025        2.81125637590893       -0.61587892670976
