48
 energy: -84.630142606719 gnorm: 0.000296637128 xtb: 6.7.1 (edcfbbe)
C            5.70474537095819        0.01380072311753        0.44973449654553
O            4.68234609048143        0.69151261899355       -0.27665551034925
C            3.41732165224789        0.55879847473457        0.26991404986951
O            3.03529896224986       -0.78919383136959        0.19259672674811
C            1.70800147016846       -1.06558429563276        0.65124656723788
C            1.55770047834613       -2.57454692818815        0.69572899904112
O            0.73526377165314       -2.87238536776358        1.98466432193107
C            0.75856155446083       -0.30017679735774       -0.30557231169995
O           -0.61859325480160       -0.64248523935159       -0.17751623971934
C           -1.28411392881163       -0.22873531300358        0.98240566325547
O           -1.84146491977498        1.04331819305251        0.78847241065431
C           -2.71677918328605        1.09559018731499       -0.37527136805103
C           -2.94641430274870        2.55614431045119       -0.67787180084930
O           -2.39188464241612        2.76387754800405       -2.16552976464901
C           -3.94311383024514        0.21348018066104       -0.07406684616697
O           -4.84907229197348        0.18095369754598       -1.14957555110474
C           -3.45606799977814       -1.21503888318124        0.18164103487014
O           -4.48048832994180       -2.13183580474045        0.48942965224233
C           -2.41879316369335       -1.21193930869120        1.31387720909814
O           -1.90874933850204       -2.49993606941904        1.53488279435727
C            1.02523428459386        1.20406596360203       -0.11200804571497
O            0.17550103737326        2.05550817137302       -0.85094989037322
C            2.47694264155098        1.49149122874390       -0.50982742474944
O            2.83225003697048        2.81115103697016       -0.20076731789163
H            5.48803566402644       -1.05440525366927        0.49801094078800
H            5.78180767413833        0.42416670833392        1.46091291818248
H            6.61939209074532        0.19759017316161       -0.10570261094520
H            3.41625739339112        0.88359507129396        1.33648517275279
H            1.61326786099882       -0.65472744155977        1.67336140089965
H            0.88273444428968       -2.86797360115600       -0.13117704816622
H           -0.24622027628326       -2.78721664417659        1.84459139476307
H            0.94780029143464       -3.80238907050705        2.20154602623398
H            1.00115481157867       -0.59637023823474       -1.33107963304567
H           -0.60456601856147       -0.14011067342236        1.83783092569966
H           -2.18129171581444        0.60654093314203       -1.20520819778247
H           -4.02562923116404        2.72491465744887       -0.83396144136185
H           -2.50304614923678        3.72270118109929       -2.33511683735825
H           -1.42739357980704        2.58401904403637       -2.11497553176440
H           -4.44078236234284        0.59957695484912        0.83395913397786
H           -4.94470730552963        1.08010623982992       -1.50563999086332
H           -2.97746642153058       -1.59252872700014       -0.73050101920530
H           -5.20555091725094       -1.68194615278792        0.94441864654425
H           -2.89820298802688       -0.83850860820604        2.23412010044864
H           -2.62959620838742       -3.13685767865011        1.38436811777303
H            0.92557999585709        1.44134716822135        0.95756271815298
H           -0.62691403020591        2.19123009079776       -0.30687930970471
H            2.61660810990873        1.28628976510687       -1.58070305453583
H            2.22029972536803        3.40672066931539       -0.66448668528186
