48
 energy: -84.857520986164 gnorm: 0.000752646788 xtb: 6.7.1 (edcfbbe)
C            5.36330467374761        0.04711392609595        1.61972647298944
O            4.65789132670609        0.56251167875045        0.49275403795950
C            3.28714893133853        0.39714604435800        0.54540384056773
O            2.98166220057107       -0.97910494767777        0.47437449593034
C            1.60418436015485       -1.27370548307835        0.57484919708546
C            1.52523123228569       -2.79459161154562        0.37978014789063
O            0.18981513059473       -3.23411964927246        0.39714580833254
C            0.75614202076349       -0.52774727344980       -0.47772618801203
O           -0.63474333745494       -0.65865168253771       -0.22078008065505
C           -1.20289618945217       -0.00631367079247        0.88256724181516
O           -1.65583439079451        1.28793278332299        0.57758953460266
C           -2.59596024106990        1.32934568469534       -0.49716210738354
C           -3.02294666106506        2.79169303839386       -0.66133834478381
O           -1.94432214576506        3.64777169153970       -0.92640742412142
C           -3.81728626958303        0.44433361253883       -0.21566651941127
O           -4.61458288049943        0.43263151946483       -1.37016392320595
C           -3.37925868581349       -0.96999470454654        0.18764856289236
O           -4.53099639364036       -1.69539473470494        0.54943295591308
C           -2.38459039433372       -0.87158720066329        1.35367403009971
O           -1.98517699633779       -2.12782687916925        1.81855899447548
C            1.15932058880450        0.94612126849355       -0.64704179995775
O            0.58622551604000        1.38761669463426       -1.85016615419331
C            2.68164260664261        1.12321585783030       -0.66205655569221
O            2.94284387722087        2.50063249910503       -0.62854310433949
H            5.21939934013168       -1.03092120592627        1.69866093607952
H            5.01999946829458        0.53581042991177        2.53586650754670
H            6.40801763296811        0.27870835083507        1.43576440288545
H            2.87165808522905        0.81738037188623        1.48694002761825
H            1.24346913608868       -1.00488666161892        1.57987241995532
H            2.00364874204732       -3.02033775577004       -0.57997349267602
H            2.10581785849701       -3.26342457289449        1.18339469290570
H            0.17557888904687       -4.18626539200941        0.21821249889469
H            0.87462462856514       -1.01180218569186       -1.45311409672566
H           -0.48697540826146        0.13415158736233        1.70213180027802
H           -2.10435710373318        0.98103541659751       -1.41475981782348
H           -3.54840271850400        3.10678627208516        0.24969603635825
H           -3.70074952286084        2.86012036224592       -1.51289059282556
H           -1.32457053291704        3.58056468872097       -0.18689720400379
H           -4.38277622304728        0.87039230452326        0.63018080408219
H           -5.31385668801761       -0.22819497972604       -1.24816316977101
H           -2.87640694469753       -1.45052967739160       -0.66501663061124
H           -4.25330121533952       -2.47401516277955        1.05597304116524
H           -2.87216303377606       -0.36857912552246        2.19734608721438
H           -1.30040483110087       -2.49498973339214        1.22335831517964
H            0.76852054705839        1.53376209254476        0.19786861435425
H            0.86277286311012        2.30218410976173       -2.01203404508231
H            3.09556588852053        0.66106954720439       -1.56977712105369
H            3.90129224522256        2.64430837035807       -0.62236018478890
