48
 energy: -84.853850165127 gnorm: 0.000555719615 xtb: 6.7.1 (edcfbbe)
C            5.72010456418428        0.06592034744309        1.04982044152542
O            4.80505290588559        0.51427385207909        0.05459143253024
C            3.47481427087450        0.44465582907682        0.41476879057747
O            3.07252867000900       -0.91017564122993        0.41077996250361
C            1.70293137774601       -1.08946606579805        0.72274956078089
C            1.43175589932095       -2.59750950460199        0.79367980770600
O            2.14800609927952       -3.21643866204416        1.82869837082790
C            0.82929442029947       -0.41349483988455       -0.34868320240843
O           -0.55377392413287       -0.69365583154770       -0.19142796312928
C           -1.22519357700909       -0.13175121827012        0.90082534466994
O           -1.75967991518598        1.12490376119165        0.58527916144955
C           -2.63253887275495        1.09054553407114       -0.54785571387576
C           -2.96602296566236        2.55652045131923       -0.85756656166712
O           -1.79190345652605        3.33459852349255       -0.88529079506919
C           -3.85827539971908        0.21673674478899       -0.23954366235950
O           -4.70121211943111        0.05262905351639       -1.35288167183040
C           -3.36789280395512       -1.18626013665764        0.15614602372409
O           -4.42822860026774       -2.00031796106636        0.59204313884417
C           -2.36489060368060       -1.08174393237495        1.30921029227935
O           -1.82073410502856       -2.32245268837527        1.65572635825534
C            1.15872816423870        1.09004425003492       -0.42918333555658
O            0.56139619201264        1.70589215280352       -1.54632659816499
C            2.67867020412292        1.27427466595768       -0.59941699896551
O            3.03427675986961        2.61675915987719       -0.40929903672408
H            5.58006323888940       -0.99688827574249        1.25157793850368
H            5.58941290941053        0.63958077037882        1.97169304335717
H            6.70666957771373        0.24398879828175        0.63231641272505
H            3.31389497195782        0.86974631032927        1.42870317491296
H            1.50713376485369       -0.64280269293650        1.71123980574333
H            1.68049941104359       -3.04248699031998       -0.17635147884394
H            0.37304832439219       -2.75287830016239        1.00934745515603
H            3.09383694558364       -3.10377894346446        1.65678448677755
H            1.06539372976270       -0.86313435123571       -1.31994033763504
H           -0.56178344138456        0.03032429158703        1.75634548477945
H           -2.09599784161341        0.64512164505327       -1.39652598325705
H           -3.66470064201989        2.94389074483487       -0.10863662948991
H           -3.40588153717941        2.63260205366142       -1.85229564133130
H           -1.48565059735224        3.45548453480903        0.02444534575368
H           -4.40620853984347        0.64349593214540        0.61330472261513
H           -5.21801611735673        0.85414931841584       -1.51054605790229
H           -2.86214669895411       -1.63805836254545       -0.70931651013618
H           -5.09155281725877       -2.04026872510232       -0.11306867810131
H           -2.87903611973491       -0.63329456721860        2.17511831023557
H           -2.55292212796386       -2.95397449343138        1.75033572549053
H            0.85542789637868        1.58319232818328        0.50311331871488
H           -0.27995627800553        2.14539709330657       -1.31723826430886
H            2.96195045184974        0.92881208257304       -1.60279820828786
H            2.62412436557317        3.14374493224803       -1.11342657822567
