48
 energy: -84.753288828074 gnorm: 0.000338188520 xtb: 6.7.1 (edcfbbe)
C            5.55755401184149        0.09425729089464        1.07812702089444
O            4.69315843137978        0.73510470495786        0.14196640669069
C            3.34212215374313        0.53673228297868        0.38651299425257
O            3.03276873389262       -0.82374905088821        0.29062420172410
C            1.66343904972441       -1.11263580848284        0.59353591607845
C            1.51230960909979       -2.62020758787922        0.62918260374619
O            0.74633907562709       -2.92819118281591        1.94343541059698
C            0.77601535544659       -0.38032532044187       -0.44540979225619
O           -0.60785054538202       -0.67794283832670       -0.28030380604652
C           -1.26947535400224       -0.17467732110872        0.84390983982032
O           -1.83056273559649        1.09341070044663        0.62512434602413
C           -2.72071419301729        1.15055712728689       -0.48895577583150
C           -3.24427307800228        2.59168915314338       -0.55441154209470
O           -3.84167410405372        2.99219963227802        0.65121615914022
C           -3.88155616899354        0.15446818819021       -0.33125634134044
O           -4.69684309920535        0.11057614462261       -1.47449303348961
C           -3.34737832428939       -1.24402867760129        0.00668454207909
O           -4.38381201703186       -2.13647578133067        0.34272975856542
C           -2.40142844977768       -1.15566911699039        1.20341932582449
O           -1.87276683563013       -2.40983977069927        1.54032528698959
C            1.06524971070417        1.12405802301118       -0.48354111233224
O            0.34419425515918        1.71207553119907       -1.54045284783762
C            2.56897511912262        1.34493861958183       -0.66407632818605
O            2.81673676018047        2.72323490128702       -0.55719642887824
H            5.38536477891068       -0.98236502286056        1.07300272336762
H            5.38429018648805        0.49329339753374        2.08183525650041
H            6.56440948402831        0.32576029468061        0.74421646068678
H            3.07361593729908        0.90636542554300        1.40506712511322
H            1.46405259025768       -0.68864464599747        1.59708589641749
H            0.80406574348225       -2.90302960657266       -0.17211482391562
H           -0.23345484291372       -2.77356376410852        1.85650636554303
H            0.90998566067846       -3.87802180225898        2.11081274708019
H            1.00307840229672       -0.79577002489489       -1.43415713576174
H           -0.59397523303936       -0.04384683217296        1.69738822212173
H           -2.15671031066323        0.92207303716831       -1.40409159938943
H           -2.41499955919840        3.25648895938729       -0.81903562361217
H           -4.02166454492270        2.65259927059220       -1.31773348607266
H           -3.17618111962173        2.93125210368640        1.35147381032257
H           -4.53332846106992        0.49696755823276        0.48152700811962
H           -4.15809939496182       -0.08990866588989       -2.25457495559225
H           -2.77567472886115       -1.63078600161846       -0.85276858049592
H           -5.12325069254347       -2.00117796205730       -0.26835568092303
H           -2.94916840230881       -0.73691683458052        2.06098055355531
H           -2.59910077892584       -3.05621398110134        1.50836243876267
H            0.76218888781214        1.58740216120177        0.47041067957461
H            0.71715345626333        2.59422382585674       -1.69476582409330
H            2.87148504763521        0.96662757662302       -1.65236996290106
H            3.77280654251254        2.87409067748866       -0.60758144791315
