48
 energy: -84.854568069428 gnorm: 0.000733676904 xtb: 6.7.1 (edcfbbe)
C            5.72779121633591       -0.00854363834317        1.17737733043795
O            4.82434963641984        0.47765702960694        0.18936625932510
C            3.49050281121377        0.40585378533864        0.53463684640712
O            3.07361213630409       -0.94180178910487        0.44839312818452
C            1.69972392068408       -1.12966011696941        0.74114202035258
C            1.45201776114430       -2.64370633662232        0.78304659665434
O            2.27893146214399       -3.28134709376212        1.71890276315450
C            0.86328279722163       -0.41724056844324       -0.33991037660949
O           -0.53113199707513       -0.68471983851044       -0.28543048628606
C           -1.25829789467683       -0.15151767942384        0.79768257475859
O           -1.75626373851418        1.12743369404226        0.53255353934822
C           -2.69343291166172        1.19884736347029       -0.53955874523571
C           -3.00759839402110        2.67775818554385       -0.76780983209891
O           -2.03055233080369        3.32609924517471       -1.53971696598878
C           -3.94095659372464        0.38362563208159       -0.18697553629245
O           -4.86094043577060        0.47771165771363       -1.24035077370059
C           -3.50865763271005       -1.06815869782831        0.04924571985343
O           -4.64399237305196       -1.80370284728483        0.43895482232718
C           -2.40886649523145       -1.13906393627132        1.11691036222041
O           -1.94356201874744       -2.45510573520006        1.25339044014275
C            1.19302537586605        1.08494843435067       -0.32310147409969
O            0.51847521085510        1.80002384921402       -1.32613735648225
C            2.71424320775902        1.30334944063934       -0.43919815893793
O            3.05418638095235        2.62702877812128       -0.12876023965059
H            5.57836418252425       -1.07608931450799        1.34573495311059
H            5.59451307382970        0.53775611549680        2.11523997868416
H            6.71936452149783        0.17420928099863        0.77383617107641
H            3.32277907066535        0.77613662467828        1.56747219712383
H            1.49104940787141       -0.70167585324226        1.73459051698170
H            1.60853619015258       -3.05745326842440       -0.22001603493255
H            0.42904976332312       -2.82959634658323        1.11106833711809
H            3.20044365356241       -3.10922002625340        1.47878506320708
H            1.15770087402633       -0.83613863764443       -1.31069403086293
H           -0.62342373407162       -0.03894376104774        1.68263125282238
H           -2.24736401385771        0.78422371010102       -1.45299398642273
H           -3.11268863890484        3.16015728017484        0.21307674552752
H           -3.94490891137622        2.75807922154807       -1.32099341941442
H           -1.15344952662626        3.06905376968551       -1.21207950878865
H           -4.37687452463920        0.77823019961768        0.74422025540037
H           -5.58869709786653       -0.13916493990820       -1.06209819572195
H           -3.10814150442134       -1.46458561238776       -0.89894083070056
H           -4.36159967090101       -2.65767181193372        0.79963006781997
H           -2.83517603437226       -0.86070511570552        2.08586115984972
H           -1.61322778460126       -2.75102532461885        0.39007176684216
H            0.85021154223897        1.52759047819088        0.61906949991670
H            0.73590784668293        1.43354885899345       -2.19700195750075
H            3.05154710921731        1.04106751680454       -1.45384286137655
H            2.57039709748983        3.22671410009810       -0.71873561765653
