48
 energy: -84.849969893711 gnorm: 0.000431078582 xtb: 6.7.1 (edcfbbe)
C            5.56993695661034        0.01751862506372        1.23861280227769
O            4.75645741025348        0.60248350520978        0.22471197747165
C            3.39865811950250        0.45453801726381        0.42384152968939
O            3.06694677148443       -0.91532751477714        0.36058920290757
C            1.69973961333977       -1.16423542657119        0.60180478872111
C            1.46766096072332       -2.67692048239038        0.57167535250561
O            1.64976793671688       -3.15613217719062       -0.73838340404283
C            0.82297520315930       -0.45668306249103       -0.44517566943582
O           -0.56083092024118       -0.71212606598795       -0.24132988930057
C           -1.18137134404955       -0.14357048125802        0.87643149347644
O           -1.70564785291415        1.12766224117822        0.59682795263661
C           -2.60305811322280        1.12657439478702       -0.51086652680278
C           -2.98246211802239        2.58074721693841       -0.77161329240584
O           -1.84999373831748        3.23700084701791       -1.29669583666261
C           -3.82065748690358        0.23722010941340       -0.21733959821808
O           -4.71612722726827        0.18600687647669       -1.29714503929661
C           -3.34003544221033       -1.17244296604312        0.17093690423609
O           -4.40556915995235       -1.98186830258311        0.60957655666998
C           -2.32433750291979       -1.07732132478089        1.31374490898652
O           -1.78961253383041       -2.32341127514679        1.66124981735590
C            1.14089309912113        1.04830878724341       -0.55358622807689
O            0.53427511789587        1.57975576952887       -1.70927730276177
C            2.66423112089935        1.25981062229165       -0.66403552258856
O            3.00924155101338        2.61455093107518       -0.62658686510090
H            5.41775155344255       -1.06217820303264        1.27368477081960
H            5.33621948446047        0.45722699620350        2.21296152974154
H            6.59180699969599        0.24929465671714        0.95433455249462
H            3.10591851207771        0.83846855636225        1.43111074494115
H            1.44800905495535       -0.79726907632512        1.61161512515528
H            2.18670858838990       -3.14060278413227        1.25758516089944
H            0.44393720378846       -2.85719250004068        0.92200326259277
H            1.48672072248161       -4.11004857253297       -0.74585038383821
H            1.02784481261472       -0.91768219407575       -1.41758699838598
H           -0.48845937037753        0.00040629895513        1.71192431777649
H           -2.07457703413682        0.73187040091951       -1.39105975840179
H           -3.28870186323427        3.03332155702046        0.17822607876773
H           -3.81812940898031        2.60171074625240       -1.47955627000352
H           -2.06784823992152        4.16041703700133       -1.48712245181934
H           -4.39067890306176        0.65787350276374        0.61910526859606
H           -4.25102181924695       -0.11224555193271       -2.09386333208100
H           -2.83518559666642       -1.63740635063501       -0.69084741888739
H           -5.14979528118771       -1.87672714294818       -0.00306854277235
H           -2.81856622336450       -0.61600407665568        2.18381233312862
H           -2.52940824708678       -2.94566389579614        1.75675106268844
H            0.77754616441933        1.55999614445902        0.34708763294845
H           -0.20490083787488        2.17307861379161       -1.48627956563484
H            3.00150953611035        0.89828892512300       -1.63962434855662
H            2.73774577354091        3.00865001143849        0.21646406649178
