48
 energy: -84.740169059123 gnorm: 0.000664411655 xtb: 6.7.1 (edcfbbe)
C            5.29992395587223        0.09789903175337        1.71297364382184
O            4.63344762902346        0.56677157740521        0.54341741840264
C            3.26218177311867        0.39412581688230        0.54920846060326
O            2.97052744247421       -0.98609677777495        0.49248279702496
C            1.59266651784468       -1.27991564005391        0.57327265105296
C            1.51508229480897       -2.80373934119576        0.39945408086390
O            0.17678342531254       -3.23736856748268        0.36776592337333
C            0.75780259254816       -0.54653597984604       -0.50067514498432
O           -0.63473060177358       -0.64628139078343       -0.22304492834974
C           -1.17289690238298        0.05148865873323        0.87328391275824
O           -1.60883940428558        1.34125621354456        0.55748268425523
C           -2.59638808417163        1.38983169162334       -0.47563690679580
C           -2.90722970451938        2.85454151647919       -0.74736823059487
O           -3.68045345903597        2.79862589237312       -2.09448677168295
C           -3.82234942403346        0.54194667319543       -0.04765165092891
O           -4.77135865711463        0.55945763806536       -1.09264771140563
C           -3.40044938855564       -0.88353935905788        0.30454172391779
O           -4.54089284612362       -1.60257803085304        0.72449368736807
C           -2.33863662565376       -0.80382941564439        1.40639092739600
O           -1.92956296381120       -2.06828269222259        1.84480114709385
C            1.17996273069569        0.92070318580038       -0.75080597480432
O            0.64241584524258        1.37919199115352       -1.95901283847053
C            2.70371143343918        1.09403504658607       -0.69837066494978
O            2.99360950910799        2.46307114948213       -0.68674927737371
H            5.16432963689968       -0.97869778143135        1.82333972913022
H            4.91723681581882        0.61277445539444        2.59861244931106
H            6.34848599438798        0.33532937809272        1.56043222507570
H            2.80697859590031        0.83027124424428        1.46353658268056
H            1.21552159790663       -0.99742553860088        1.56849841989048
H            2.03011075046157       -3.04887005587253       -0.53715578419215
H            2.05993826270156       -3.26196124327749        1.23318418899879
H            0.16825233880596       -4.19884348707280        0.24645233415986
H            0.85181657745938       -1.09338915720267       -1.44668358119357
H           -0.43005377477517        0.19988728157296        1.66849906895642
H           -2.17123539674618        0.94321001899654       -1.38796673943974
H           -3.68173639345590        3.15530270961534       -0.00129960088039
H           -4.42305784391622        2.14770791981500       -2.03813736054004
H           -4.00711603524081        3.70426328412214       -2.25723858300809
H           -4.26190915801849        0.99566165946482        0.85837974280393
H           -5.44812269673753       -0.10600308555988       -0.89791918723341
H           -2.95649722642385       -1.36419791221462       -0.58099783054347
H           -4.24084819080754       -2.38602630909629        1.21009028374513
H           -2.76853295531127       -0.29542096571507        2.27834250422249
H           -1.27164818865194       -2.43358592883075        1.21816759679431
H            0.73408003865507        1.56782425820633        0.01256793118413
H            1.11195359100420        0.98012825849908       -2.70803826799599
H            3.16264959591806        0.60249178059445       -1.57150226856093
H            3.95450395377773        2.58218120367538       -0.62580086901930
