48
 energy: -84.849473089315 gnorm: 0.000435179842 xtb: 6.7.1 (edcfbbe)
C            5.60449537744700       -0.00759879853395        1.23880549724739
O            4.76518287984419        0.57207523893777        0.24270611005991
C            3.41405232859860        0.47067346997547        0.50568152651101
O            3.04115958674465       -0.89130893812220        0.47353969381211
C            1.67525745255285       -1.11253370098150        0.75653405009304
C            1.43126899333565       -2.62898547172816        0.78699921422124
O            2.03079074296967       -3.26026998553531        1.88684593455084
C            0.80749306539678       -0.43245307088150       -0.32180525407812
O           -0.57954653306859       -0.68928505592211       -0.16507104232681
C           -1.24057010294989       -0.10425018679476        0.92359590200255
O           -1.76058977056519        1.15822493630960        0.61430343719355
C           -2.66814171506700        1.16126227026949       -0.48820427881755
C           -3.02343662432239        2.63654449180016       -0.71675911373635
O           -2.15269729410938        3.26999219588450       -1.61631573451966
C           -3.88770199645591        0.26306974064225       -0.19809869333383
O           -4.71062301039701        0.10331562001856       -1.32325540339551
C           -3.39724745662826       -1.13833751612829        0.19612566411324
O           -4.43523754117279       -2.01989086575139        0.53834353712831
C           -2.38824060892671       -1.03428066293960        1.34954741668553
O           -1.87342665584026       -2.28653034025544        1.70628216584058
C            1.13833271921272        1.07268809269917       -0.39652106704438
O            0.40997626754264        1.72663942562159       -1.40142604381746
C            2.65600891256474        1.26318206937348       -0.57870949669163
O            3.01492694636590        2.61307036442289       -0.61156056299419
H            5.39080007921011       -1.07227172979548        1.34514704608739
H            5.45828919170603        0.49788273439021        2.19791566105817
H            6.61878783251975        0.14411066320806        0.88281320775655
H            3.17526431798312        0.88328622594482        1.51309593704256
H            1.44530382826752       -0.68372342772375        1.74618543510199
H            1.89284681300710       -3.06726657684258       -0.09936750294602
H            0.34945584949452       -2.79745949606827        0.76856305988332
H            1.53055451337317       -3.06204231917899        2.69086568796913
H            1.04060944492101       -0.90006157417369       -1.28509149447821
H           -0.56719390486064        0.05685762182806        1.77247168727434
H           -2.16041221610379        0.76666674222396       -1.37852339321680
H           -3.00650083911950        3.13587305106649        0.26169097762923
H           -4.01938736345474        2.74077492274178       -1.15157344791095
H           -1.23709205609290        3.04524031472186       -1.38428652611889
H           -4.45513469122709        0.69561052545043        0.64403962634266
H           -5.00602508724467        0.96181975922670       -1.65775794989860
H           -2.89664845120720       -1.59006512853037       -0.66696224132629
H           -5.09791396437037       -1.56446704647973        1.07778116476531
H           -2.88049972923148       -0.56604411669809        2.21953281472040
H           -2.58904228645283       -2.93867674417199        1.61131185590084
H            0.82189099967047        1.55485011870905        0.53679286576103
H            0.76557350856765        1.49168409058180       -2.27126090025248
H            2.97209445450901        0.85736463561890       -1.54605117812019
H            2.76970378834243        3.05391340744102        0.21515113523918
