48
 energy: -84.745783257765 gnorm: 0.000948529409 xtb: 6.7.1 (edcfbbe)
C            5.72640190700178       -0.06556086915399        0.87381629938231
O            4.77477298415054        0.55536829377004        0.01406022509082
C            3.45663186117536        0.43868908283918        0.41510622125507
O            3.06731371096237       -0.91746540092114        0.35974131929093
C            1.70541160868859       -1.11346619408822        0.69044603494670
C            1.42525593319590       -2.62371159777918        0.72507283354168
O            1.64185889781281       -3.18575889059998        1.99346835939698
C            0.82187361908499       -0.39423815698564       -0.34417168573083
O           -0.55885230231951       -0.68623458811631       -0.20018277587537
C           -1.22101031302441       -0.16790366510762        0.92333734587473
O           -1.75379149654732        1.10118970638285        0.67069547926427
C           -2.65413960755583        1.13950661881930       -0.44042640273728
C           -2.93896748547102        2.62065990401433       -0.67030873494780
O           -3.95279303908745        2.69837168483508       -1.83690557275137
C           -3.86509346547300        0.22570907583800       -0.12569313036691
O           -4.73279865260002        0.23165665244085       -1.23941838066100
C           -3.37644055476045       -1.19275318641015        0.17387181508090
O           -4.49653555680399       -1.98005948380550        0.50742760287509
C           -2.35280938600604       -1.14776758293412        1.31141172103319
O           -1.90183590702169       -2.45787362207073        1.52996157790430
C            1.12228444535901        1.12036975969543       -0.33048865535427
O            0.44356182480409        1.77419777175761       -1.37212801903179
C            2.62998213464274        1.33624738357185       -0.52578191050594
O            2.91142093668807        2.68339381584921       -0.25886157151048
H            5.59946699019038       -1.14837635019301        0.86538049855959
H            5.62106330329264        0.31420613617562        1.89372241501616
H            6.69733392076851        0.20353645283104        0.46854053340878
H            3.32586962778954        0.80419294091684        1.45805067561401
H            1.51928738882628       -0.69101615728763        1.69205456998020
H            2.04204804774279       -3.10381608184345       -0.04060550793059
H            0.36985416675273       -2.78712962299783        0.49578487642583
H            2.59061275320655       -3.21384366581609        2.18017476934142
H            1.06105263886941       -0.78340639950635       -1.33969704749062
H           -0.54025935110136       -0.03166162454967        1.77203565566970
H           -2.15212075357893        0.70445047678730       -1.32063144517217
H           -3.55222130261194        2.96428642744768        0.18877198838506
H           -4.51825970890188        1.88300921496185       -1.84045027597275
H           -3.42795421167359        2.73535965012523       -2.65994205073789
H           -4.38939160043703        0.60778572723060        0.76540321401505
H           -5.42453266696725       -0.43161160136253       -1.09637176867240
H           -2.87474528513333       -1.59931618335324       -0.71727897942180
H           -4.18224786067050       -2.84748463056991        0.80106321548710
H           -2.84484797395262       -0.74128546917715        2.20842240652205
H           -1.33778574670063       -2.50019145422532        2.31470703473708
H            0.84189525834686        1.54709121571150        0.63978068060656
H           -0.33835646754733        2.23409499907815       -1.02728790778062
H            2.88278672296668        1.07394890834443       -1.56126361073057
H            3.81607801689061        2.88273963060582       -0.54214495159658
