48
 energy: -84.851922520747 gnorm: 0.000744358926 xtb: 6.7.1 (edcfbbe)
C            5.55007592081413       -0.07588652055836        1.23942026609115
O            4.72878970931749        0.52922847081326        0.24360495713401
C            3.36876575401717        0.39073862846155        0.45481297792214
O            3.01741065995801       -0.97161726703376        0.38333021092037
C            1.64103524973542       -1.19912175350564        0.59944353090007
C            1.39372391491707       -2.70858296809742        0.54351930227564
O            1.59895030406090       -3.16852002297853       -0.77017187794672
C            0.78118285288448       -0.46769788156963       -0.45019421193824
O           -0.60345823092835       -0.70787630553843       -0.25891696051506
C           -1.23982269159388       -0.14559343327098        0.85527307131558
O           -1.76187517153870        1.12950780167032        0.59376346977357
C           -2.67833152945993        1.15279016928084       -0.49747786071142
C           -3.15602651448112        2.59594697805424       -0.68801788417105
O           -2.20188279558920        3.43193447242318       -1.28553961517165
C           -3.86429488198044        0.21497931041617       -0.22955372009090
O           -4.69152778708103        0.21344323345483       -1.36238287811091
C           -3.35105264676328       -1.19737364950916        0.08819463905057
O           -4.47173510706851       -2.00367860966121        0.38437688311734
C           -2.37622541842083       -1.09735544382192        1.27242457676542
O           -1.81698219319934       -2.33029527251224        1.64130362082166
C            1.13260186354938        1.02351495311372       -0.51281298359367
O            0.47880298758033        1.58932729509365       -1.61898532984070
C            2.65194669186701        1.19767787617125       -0.63629774188618
O            2.93147623097295        2.56853559263894       -0.52878878491217
H            5.38238915112153       -1.15295715995950        1.26714962627115
H            5.33627972460321        0.35888055078637        2.21989550034536
H            6.57094420945654        0.14310743299115        0.94132669875238
H            3.08174292340227        0.78541172835603        1.45585391596581
H            1.37802002023795       -0.83833876941143        1.60761294191442
H            2.09409951563032       -3.18878662780073        1.23684842456149
H            0.36158276837201       -2.88368386051230        0.86869285149397
H            1.45405458488437       -4.12530190915348       -0.79172597638883
H            0.98404614101260       -0.91569225809652       -1.42890808464037
H           -0.55196042447423       -0.00735575662500        1.69739686877367
H           -2.16017495092738        0.81135285487922       -1.40475458536511
H           -3.36297359263737        3.02914396424379        0.29240010176632
H           -4.07769953348883        2.56549515260172       -1.28167718060607
H           -1.97741677845046        3.07644249159103       -2.15749602222949
H           -4.42063753421783        0.58253572487044        0.64817754212927
H           -5.38002864223232       -0.45780615220539       -1.23017577752551
H           -2.80262688870795       -1.58054314865726       -0.77990896739973
H           -4.26366499824128       -2.93165646752596        0.20991771865264
H           -2.89607591819032       -0.63396774202326        2.12311369697518
H           -2.50133008562436       -2.86835417452561        2.06941868643839
H            0.80225321835476        1.52428970111963        0.41122185598350
H            0.76001776206575        2.51477164777707       -1.68410262623904
H            2.97868313710785        0.80121069780983       -1.60866487012685
H            3.88827901943089        2.70447339012405       -0.60171700410933
