48
 energy: -84.850013416776 gnorm: 0.000785448613 xtb: 6.7.1 (edcfbbe)
C            5.53216209407358        0.09382326890093        1.33106273735777
O            4.73690015973519        0.57022083743009        0.24852474623774
C            3.37641054592828        0.43271445382342        0.42885444325639
O            3.04621833294332       -0.94171180481896        0.38349554220846
C            1.67483003256023       -1.20847697266806        0.60540875090620
C            1.48572664520461       -2.73069960613003        0.50077371135171
O            1.90028645116016       -3.22568975355764       -0.74282656736989
C            0.79913388045713       -0.49273699872548       -0.43890027293250
O           -0.58702481706281       -0.71843067908278       -0.22256308195356
C           -1.20320533274954       -0.13742274412473        0.89418202688342
O           -1.71256971995329        1.14201683104835        0.63146962243775
C           -2.58079779711433        1.17670019174322       -0.49526292466385
C           -2.97121301679795        2.63564529087763       -0.72718264450458
O           -1.86212202051454        3.47882944352187       -0.91411719186049
C           -3.81393163804422        0.27813537355074       -0.27307483251758
O           -4.65020116669530        0.27732552479483       -1.39681448748030
C           -3.36032646726513       -1.13707578242887        0.12231354769959
O           -4.49752048191479       -1.88785135602243        0.46357106255796
C           -2.37536014715187       -1.06017979751367        1.30063176403724
O           -1.94970739580717       -2.36338587962942        1.60690957782884
C            1.14027434512311        1.00427766481657       -0.56854883624593
O            0.44187598083138        1.59383616892925       -1.63658185891804
C            2.66076288606655        1.18935375553555       -0.70875095561455
O            3.02927263982084        2.53466403791178       -0.77784188488642
H            5.38018955217002       -0.97648063991074        1.47816714624313
H            5.28537850772155        0.63284476872355        2.25034658351001
H            6.55933992439537        0.29427983418091        1.04205501912943
H            3.06142580957190        0.84245043673759        1.41455760284053
H            1.40399644097971       -0.87408104307762        1.61875085713113
H            2.03762494146303       -3.21377723970845        1.31551313009966
H            0.42051043994994       -2.95645635121910        0.58919420850349
H            2.84058638877969       -3.02423782522910       -0.85527811155036
H            0.97668117130063       -0.98442071531506       -1.40400127474879
H           -0.50895314572944       -0.00456666327655        1.73166166270649
H           -2.02597027975834        0.80790014948768       -1.37075745530249
H           -3.49970645129782        3.01631096462567        0.15001391973626
H           -3.64293510373925        2.67493673056697       -1.59512981187070
H           -1.17166974753422        3.00101092939238       -1.40146810687354
H           -4.42225500297611        0.68575109251572        0.54199622396995
H           -4.25832310428503       -0.26429101701016       -2.09769342950025
H           -2.83011336438144       -1.60274751939363       -0.72291924574201
H           -4.20865520371830       -2.76241179794964        0.76653957553055
H           -2.89078833030889       -0.59228835578568        2.14872852599750
H           -1.68004443612308       -2.41858641190258        2.53403227829876
H            0.78666062180940        1.53510069459801        0.32410072299910
H            0.86073751698023        1.34847632395698       -2.47532226868789
H            3.00840200001281        0.74824275192910       -1.64990553031687
H            2.72079586479884        3.01796137083090        0.00258380797912
