48
 energy: -84.850839292255 gnorm: 0.000672396579 xtb: 6.7.1 (edcfbbe)
C            5.26324033775757        0.14029772448081        1.77395642979226
O            4.58718483564640        0.61490832304046        0.61222093255859
C            3.21908246924465        0.44514182579185        0.63441534935294
O            2.93142225082741       -0.93926529503836        0.58665720572437
C            1.55923060795126       -1.26617177839685        0.65964730254739
C            1.52613709467560       -2.79314589321291        0.48939050336361
O            0.20588070208910       -3.26000577183795        0.35574510569027
C            0.72622390851167       -0.55803394187394       -0.43016912477994
O           -0.67025955383858       -0.72644687220897       -0.21738585016914
C           -1.28485760533500       -0.07247669830969        0.86155279446261
O           -1.75404840829657        1.19930098220746        0.50360351646654
C           -2.65715458975385        1.17172487554441       -0.60117566499975
C           -3.08141840847788        2.62402909827194       -0.85458638274287
O           -3.63468546609531        3.22406976207591        0.28810859928232
C           -3.86746002778347        0.27181110428484       -0.30738923362608
O           -4.70956826478813        0.15204013760870       -1.42689645485349
C           -3.42997948567154       -1.12151448773417        0.18317511995640
O           -4.54441432250946       -1.86732807359548        0.60837562897389
C           -2.44272164219697       -0.96719656985062        1.34864087486203
O           -1.96285057086364       -2.17224877549425        1.86203733276390
C            1.09496640356585        0.93507258524093       -0.58081512526962
O            0.46967414788326        1.49946724617199       -1.70257906565380
C            2.61927407124467        1.13197828506195       -0.60656324815591
O            2.97644376019810        2.47717911378158       -0.71999445054140
H            5.12081655211309       -0.93541450041641        1.88560545819090
H            4.89634001838957        0.65785444219135        2.66500236129086
H            6.31145909507995        0.37001682215359        1.60950922205190
H            2.77958615432456        0.87257019865209        1.56316293863797
H            1.16394194733472       -0.98907299638571        1.64882626013478
H            2.11809603329303       -3.02495288280306       -0.40437275825882
H            2.01699084409820       -3.23837101122794        1.36245316331220
H            0.23090899682413       -4.22027442387161        0.23243356059256
H            0.89357257373174       -1.06365445879511       -1.38733093984438
H           -0.59160931813124        0.10312512955857        1.69298810451616
H           -2.12339616316776        0.79324712352969       -1.48341760799462
H           -2.20694453386777        3.18510701716178       -1.20542856733463
H           -3.86060305266548        2.64006202031296       -1.61827442726103
H           -2.97803550959564        3.17871876784558        0.99769936363239
H           -4.47950000108601        0.74349605357633        0.47043472714336
H           -4.20615396001965       -0.20396727191575       -2.17475394077481
H           -2.91190653960812       -1.65172594133453       -0.63331903289118
H           -5.26608163910220       -1.71751872703417       -0.02347323987388
H           -2.95540956863944       -0.46936537497246        2.17861950661843
H           -1.35147214984675       -2.57955596187338        1.21590033823164
H            0.68325193121637        1.48631234694218        0.27366870998680
H            0.94061406963066        1.24149029156957       -2.50878078278530
H            3.05565323667926        0.64237195281746       -1.48416823878585
H            2.61221556756361        2.99385202847250        0.01374795571086
