48
 energy: -84.737852202304 gnorm: 0.000470961420 xtb: 6.7.1 (edcfbbe)
C            5.43950222065401        0.30130870083831        1.51826866479409
O            4.65309018757530        0.82315849001773        0.44902209263188
C            3.29871806872446        0.54862877812035        0.55083910156087
O            3.09093025569442       -0.83342314907614        0.45901820425288
C            1.74670390959685       -1.23047442057374        0.66510702156832
C            1.81699190842990       -2.75781813030217        0.61313825637111
O            0.36714413072056       -3.28711969578335        0.57511375353097
C            0.84039390062108       -0.55196050818137       -0.40938957296180
O           -0.57032505532974       -0.79366969742741       -0.21970696046569
C           -1.20033966602654       -0.17983067251303        0.87887385463245
O           -1.70104069847897        1.09394770843137        0.58196303152713
C           -2.62133025163493        1.13164292866598       -0.50167774829844
C           -2.93711983925477        2.60775203710539       -0.76315745084880
O           -3.44741864371580        3.25464638335407        0.37387780680326
C           -3.88179184903101        0.33624468348598       -0.15378458656909
O           -4.69966400945430        0.30085083481227       -1.29389248957631
C           -3.49551915062718       -1.08447714096023        0.28338713010529
O           -4.66452530941465       -1.70331023404934        0.76879526993931
C           -2.38725603796100       -1.07044639673924        1.33917304725287
O           -1.97902307084245       -2.37615166411566        1.65517391391827
C            1.09984834375897        0.96156393373711       -0.56290076282716
O            0.41045360902970        1.47844340188631       -1.67338874422506
C            2.59940120480949        1.26577117368167       -0.61432163519944
O            2.77557580159966        2.65405080772212       -0.54637945101176
H            5.33513676257166       -0.78310990371255        1.56946372378547
H            5.12812749398423        0.74936965960134        2.46618349605561
H            6.46277282037305        0.57828893339530        1.28413378518432
H            2.89398355554710        0.92368195725434        1.51808248752120
H            1.42767532941242       -0.87680980699792        1.66433152705578
H            2.18010389848247       -3.00473626437914       -0.40482642245168
H           -0.22720277748440       -2.60633159805069        0.17732888615136
H            0.09835466254192       -3.42257629798912        1.50819637474472
H            1.04505029531845       -1.03111782180015       -1.37595304705812
H           -0.50346359614710       -0.03255979516603        1.71057037234871
H           -2.15989822239844        0.70510648485370       -1.40037793181152
H           -2.02212439145797        3.09660390179776       -1.11782377143851
H           -3.70903415536322        2.66609214965351       -1.53133999406236
H           -2.77612611523862        3.21398074427786        1.06982580620929
H           -4.39667840345059        0.83502561389046        0.68081302580632
H           -5.50812247627905       -0.18758537039334       -1.07586521372217
H           -3.12714935578022       -1.61695578123351       -0.61101547963132
H           -4.43849618374827       -2.46895410106362        1.31883518346325
H           -2.77464264635542       -0.61296364600991        2.25784509923161
H           -2.21475204671068       -2.97709438452613        0.92966393291547
H            0.68215549036215        1.49600635244773        0.29762699858935
H            0.87357150218372        1.23828518740807       -2.48970412528208
H            3.03102139294703        0.85939946146905       -1.54365951809473
H            3.72513118037764        2.84720505260337       -0.50974701501358
