48
 energy: -84.855874126746 gnorm: 0.000320631713 xtb: 6.7.1 (edcfbbe)
C            5.45205480077941        0.06335330333217        1.39320386021050
O            4.65609929086984        0.61967762911663        0.34934894721024
C            3.29456362719599        0.43513489113755        0.50074214603884
O            2.99770910381744       -0.93947269440491        0.38368949925020
C            1.63149537959492       -1.24263955054148        0.57582562268596
C            1.52853015250038       -2.77637783900814        0.43987764413983
O            0.40894919735565       -3.32747459263723        1.07552076330487
C            0.75638724196983       -0.50945449404288       -0.45751435074493
O           -0.63868146780984       -0.71557662681687       -0.26138446482610
C           -1.25340126458785       -0.12666041435817        0.85298160940665
O           -1.72817276454896        1.16709997517266        0.57126139963208
C           -2.59991828668833        1.21742820898917       -0.55266709064676
C           -2.89991476123805        2.68592327578038       -0.82776601771364
O           -1.71677496323058        3.30410888472278       -1.28421449371875
C           -3.86674807532452        0.40124606147106       -0.27417444008056
O           -4.68605604993202        0.43845726842737       -1.41193447448375
C           -3.45627488496758       -1.03270006058497        0.08637708518339
O           -4.62006385026115       -1.74812690607142        0.42884558043457
C           -2.45556470511456       -1.00729867210063        1.25377006806609
O           -2.09918040223091       -2.29712598403130        1.65467096126102
C            1.07760528780927        0.99968721787831       -0.56742455873318
O            0.50690579104896        1.47871921668197       -1.76306761477786
C            2.59309878832521        1.24822655038439       -0.59749390739075
O            2.80667035199762        2.62046621010446       -0.40320638445089
H            5.32605454782172       -1.01915642909729        1.43380890876896
H            5.17734848995023        0.50662458072500        2.35455351709357
H            6.47700760553429        0.31619980041212        1.13922502542031
H            2.95431205559890        0.79640374673713        1.49645849124207
H            1.33471142464070       -0.93687781559428        1.59300186512495
H            1.44466263807107       -3.03593931112781       -0.61701192687157
H            2.46150103665708       -3.19824801209687        0.82646959555892
H            0.55532071355894       -3.37461837036922        2.03157477196004
H            0.93866020188553       -0.94309048586545       -1.44714322167487
H           -0.56842504653507       -0.00495610002144        1.69879498900944
H           -2.09411884323189        0.79043876510517       -1.42875117335439
H           -3.24399605326889        3.15130539675899        0.10308943759438
H           -3.68945564999029        2.72760311488574       -1.58496176154006
H           -1.90379746464462        4.22766356911189       -1.50512889739722
H           -4.39518436844388        0.83536656040890        0.59054828084182
H           -5.39408645888108       -0.21390631215740       -1.29305868279092
H           -2.96924039569138       -1.49386561543121       -0.78705525339447
H           -4.35488573247676       -2.55320960589666        0.90017150888009
H           -2.94119364888653       -0.53901818086368        2.11885630802624
H           -1.41535920187001       -2.65892607240901        1.05809802644758
H            0.67149775326528        1.53268145560559        0.29895932984873
H           -0.12161374748319        2.19993219344770       -1.58696083785721
H            2.98238295131217        0.91688253951417       -1.56949765054617
H            3.74906565168961        2.81523066409474       -0.51862507432172
