48
 energy: -84.851048840291 gnorm: 0.000363745316 xtb: 6.7.1 (edcfbbe)
C            5.56406712159147       -0.14947410065583        1.13293272551053
O            4.71328655020561        0.39430031727825        0.12715516625805
C            3.36928625926810        0.36677890614935        0.44004421751228
O            2.94138817681499       -0.97709505409346        0.47290242040114
C            1.56527281048927       -1.12761592553133        0.74326762061976
C            1.25500157037565       -2.62460571481582        0.82962311911807
O            1.38214040105626       -3.20498128698685       -0.44591327257932
C            0.71898348941104       -0.45239674503309       -0.35220648453153
O           -0.67179575428046       -0.68029800724182       -0.16753581647250
C           -1.31631853408021       -0.05941615586733        0.90647290073173
O           -1.81955151429592        1.19953036096356        0.54432176800056
C           -2.70506992206748        1.13724639493061       -0.57865487297777
C           -3.01465198898395        2.59444385402894       -0.94690549967978
O           -1.82642660669867        3.34360919170275       -1.04578817868837
C           -3.94637026139800        0.30210004313420       -0.22614451378842
O           -4.80238588550820        0.11024438859957       -1.32482779033123
C           -3.48269458058419       -1.09363608394621        0.22222983019370
O           -4.55652805965413       -1.87123979906969        0.69045819033164
C           -2.47639926669367       -0.95812156518884        1.36782815432131
O           -1.96644807453629       -2.19366866397826        1.78075743558068
C            1.09722480993071        1.03422166251159       -0.47845355394955
O            0.53608855324638        1.63741550061248       -1.62152444341138
C            2.62335477581072        1.17255609422352       -0.62871015636487
O            3.00903721065116        2.51326601427015       -0.49187759752450
H            5.33062164189875       -1.20202305582553        1.30103529413622
H            5.45263096966872        0.41086011928279        2.06574270761789
H            6.57208062773448       -0.04028939524717        0.74445912883740
H            3.18428567860220        0.83200381081541        1.43420809515427
H            1.34546695063753       -0.66807474640971        1.72184899708109
H            1.96726729167306       -3.07363755554906        1.53218526585126
H            0.23315568567616       -2.72939670853842        1.21267073284866
H            1.14619296098755       -4.14160435841087       -0.38587824691167
H            0.93567278332868       -0.95416153638418       -1.30106541938108
H           -0.64025055059361        0.12399079643915        1.74870129896644
H           -2.18601674109072        0.64624022380698       -1.41309214156200
H           -3.68329228692936        3.03112090347424       -0.19776951564726
H           -3.48139200224801        2.63396938829036       -1.93158084714021
H           -1.48747141658760        3.49750004246144       -0.15284954474707
H           -4.47885974443157        0.77489887668884        0.61247429815672
H           -5.29205802333218        0.92006326354105       -1.52144764382997
H           -2.98587519257017       -1.58749017107311       -0.62527049549938
H           -5.22688946199460       -1.91520096666494       -0.00773807674384
H           -2.97540084305344       -0.45197693371099        2.21063805685068
H           -2.71587357479390       -2.80559883903092        1.87034159003432
H            0.79629677304375        1.56718727773454        0.43358403657728
H           -0.31950819922568        2.06291898772959       -1.42602460702255
H            2.91812169966244        0.77299341110125       -1.60825128664289
H            2.61812469556196        3.01771257525292       -1.22323504804214
