48
 energy: -84.846208652376 gnorm: 0.000861711339 xtb: 6.7.1 (edcfbbe)
C            5.56694441352962       -0.04539305676578        1.22068001810879
O            4.73987882374456        0.54976168598468        0.22303212267704
C            3.38560010814322        0.43814542485687        0.46535179819894
O            3.01805746114567       -0.92329397125668        0.40526495262260
C            1.65190789006397       -1.13514998045541        0.68776351548764
C            1.40266702237618       -2.64303645513814        0.74067383531936
O            1.70037326377360       -3.10024364230218        2.04110350270469
C            0.78733854444337       -0.45172724143609       -0.38640810220462
O           -0.59840882917652       -0.71244458195072       -0.20887011471366
C           -1.24532279416297       -0.12911986948062        0.88803266867960
O           -1.77079211934953        1.13540295946242        0.58215346150409
C           -2.66029528484571        1.11101065344681       -0.53071867276528
C           -3.02620147583920        2.55492073985793       -0.85176008798165
O           -1.86101628249927        3.21058460138035       -1.30111259338422
C           -3.88187399272168        0.24951147863823       -0.19808596306593
O           -4.74209358329908        0.21835096282838       -1.30540513696591
C           -3.40935858988110       -1.16787319097656        0.18099573350207
O           -4.50917491144907       -1.98810245581550        0.47699492232480
C           -2.39201515998617       -1.07664478437521        1.32544785772933
O           -1.93253828894035       -2.36283467424408        1.63115941820654
C            1.11331474238337        1.05354152624874       -0.50228100697923
O            0.53083728696006        1.58470110259171       -1.66881491035688
C            2.63975492518847        1.26283008028555       -0.60186955632719
O            2.98508688173018        2.61623654596056       -0.53949232265174
H            5.36349685311709       -1.11471050400534        1.29672510200922
H            5.39607937275771        0.43327076081286        2.18965103936358
H            6.58609804983632        0.12697375536447        0.88835932554081
H            3.13493535146521        0.82606317964573        1.48065806857702
H            1.42988998765519       -0.71330356627094        1.68204071893839
H            2.05012625817955       -3.11129780843247       -0.00693012977077
H            0.34934078682483       -2.83212367801042        0.49686951909872
H            1.73381377840652       -4.06735832910796        2.03715473260402
H            1.00975192499062       -0.91316138875294       -1.35482617225845
H           -0.56018028024074        0.04006654108787        1.72726427088950
H           -2.14881719248802        0.67340506798187       -1.39799540352590
H           -3.40915276091211        3.03266178368109        0.05815287997753
H           -3.80286023010090        2.53727890708843       -1.62259626797763
H           -2.08827511413831        4.09672628513797       -1.61624734016305
H           -4.40237400827601        0.69513115639693        0.66816729971435
H           -5.29397602487866       -0.57822989433769       -1.23867526403115
H           -2.91729627859478       -1.63010435973740       -0.68072791549839
H           -4.85114880766211       -1.78511106981717        1.36048314244290
H           -2.88132699593409       -0.61083922118108        2.19574505571685
H           -1.43472041492255       -2.35302362597929        2.46173322783348
H            0.74181245966643        1.57380506432587        0.39019195640154
H           -0.24978379340386        2.13097432619970       -1.46543672177239
H            2.97588249296757        0.92242261976994       -1.58581294992590
H            2.68723553270949        3.00293312725181        0.29812647231114
