48
 energy: -84.854627763719 gnorm: 0.000676975796 xtb: 6.7.1 (edcfbbe)
C            5.53384218197110        0.04729837725962        1.31830414434878
O            4.72740908777416        0.54490619901227        0.25358055483836
C            3.36763698602178        0.43697436330658        0.46209981292817
O            3.00909622250396       -0.92991347646117        0.42871296448635
C            1.63274777673698       -1.16815750296785        0.65276955091171
C            1.42627457712188       -2.68928935016156        0.61014329468889
O            1.79927239423674       -3.23943951948002       -0.62366649890984
C            0.77863538613726       -0.46641163319158       -0.42095199423935
O           -0.61018285331238       -0.71130996183348       -0.24958341717467
C           -1.27014542213492       -0.13725571991363        0.84143425279945
O           -1.79648926510937        1.13379708271184        0.55526699438727
C           -2.68368777006428        1.13816905621632       -0.55717843154198
C           -3.09770209746695        2.59316613992046       -0.80494855808406
O           -3.72255004322019        2.77447915854822       -2.04599185470265
C           -3.89135710823455        0.23012543989842       -0.27417583537988
O           -4.73060124938967        0.21521495546254       -1.40178488846532
C           -3.40117878874274       -1.18038055168855        0.08134121753405
O           -4.47298871070032       -2.04448225875557        0.37098783238177
C           -2.40937633935663       -1.09374393239435        1.24625059645779
O           -1.86862813641903       -2.34049389311941        1.58695076930738
C            1.12290966050526        1.03276470027042       -0.51178882345094
O            0.42164899404230        1.67505059797803       -1.54088619293249
C            2.64578082959337        1.20920677816082       -0.66048911769743
O            3.02155000301637        2.55403952337675       -0.71104903263043
H            5.35588425960095       -1.01834595324798        1.46964294969735
H            5.32190040924698        0.59264365481890        2.24248271281177
H            6.55916691632944        0.22001390229766        1.00574191736011
H            3.08220109748003        0.85527713017825        1.45334818071033
H            1.35827555256997       -0.79703891010031        1.65237888116755
H            1.99921484045793       -3.14167995564339        1.42769221177978
H            0.36399849770187       -2.89763157752218        0.74906350942814
H            2.73697662121844       -3.04492639956046       -0.77172253922980
H            0.99151105929064       -0.94863226308967       -1.38251141140939
H           -0.60171897342471        0.01373488716637        1.69625619475254
H           -2.16003585112669        0.76606787307331       -1.44705846877577
H           -2.19510535794778        3.20771712741265       -0.81168335969607
H           -3.74818791825938        2.92694518167613        0.01572182242234
H           -4.40847847739334        2.09342906113783       -2.14740490372423
H           -4.43995152257969        0.64224624485168        0.59237607933195
H           -5.26134224434210       -0.59753460570864       -1.39170433451194
H           -2.88799830796802       -1.61786183289669       -0.78133658191554
H           -4.97361488785035       -1.70757896655890        1.13020593319293
H           -2.91427748624212       -0.64881478277947        2.12144959614518
H           -2.55945821806085       -3.01443086302586        1.46956031608669
H            0.78622142389828        1.53250363153427        0.40554204878494
H            0.77023222451996        1.40075904090474       -2.40199475276572
H            2.98318890045848        0.78106773701836       -1.61097057703878
H            2.69354312526386        3.03057399901564        0.06563620723753
