48
 energy: -84.743000475935 gnorm: 0.000918354475 xtb: 6.7.1 (edcfbbe)
C            5.48952727013688        0.18808713788483        1.37945880469666
O            4.67588961571959        0.73327876699445        0.34293688206229
C            3.31688258543885        0.51645313146615        0.50797447147095
O            3.04479496499695       -0.85691416250299        0.45003969520980
C            1.68354387417789       -1.18279487278469        0.68754347358636
C            1.67160103520659       -2.71793451477768        0.74914116947591
O            0.29910781562404       -3.25853757034712        0.36650288219249
C            0.79442352769033       -0.50437600606085       -0.39924310793153
O           -0.59768369329566       -0.76350811852920       -0.19703580510130
C           -1.23510978553875       -0.16326518255770        0.89766721742265
O           -1.77549173211770        1.09306844118307        0.59128294134048
C           -2.71547031236248        1.06034531499268       -0.48159934946009
C           -3.14096877794731        2.50551066244393       -0.76018980686301
O           -4.20709746654364        2.87329034003134        0.08716128500450
C           -3.91566024656091        0.15982099100277       -0.12325083473550
O           -4.81275525133616        0.04069292778732       -1.19753230450991
C           -3.40201602457045       -1.23596907248407        0.23966997943788
O           -4.41198117667081       -2.13151344509696        0.62778215799977
C           -2.36136294439512       -1.10090427090729        1.36339762666762
O           -1.83385826084899       -2.34890727606471        1.72976545938984
C            1.08939421816528        0.99522913048165       -0.52538253062059
O            0.41729989874186        1.49015392391597       -1.65961266877589
C            2.59645926233977        1.23648952899703       -0.63933054546709
O            2.80796743402044        2.62425484390381       -0.61776280087001
H            5.33886565463409       -0.88976003747754        1.45151970957457
H            5.24530028580275        0.65965757424101        2.33568954338728
H            6.51140366963422        0.41551827310335        1.09139304999536
H            2.96958777278577        0.92275215094608        1.48510132239538
H            1.39789828279370       -0.75170936786376        1.66772681284800
H            2.30209245245275       -3.04260414561833       -0.10301141933067
H           -0.03875934183151       -2.92374562454291       -0.49126522626331
H           -0.36260345759004       -2.97132307275490        1.05755512238294
H            1.00640335523767       -0.95790143892932       -1.37546408865100
H           -0.53765671944213        0.01669757700962        1.72373379353501
H           -2.21539025332275        0.65988042250298       -1.37329512752930
H           -2.26132143839098        3.13226670874917       -0.58847504847837
H           -3.44288340580183        2.58597717449430       -1.81140284305548
H           -4.32292348174122        3.83302650366257        0.05321200374462
H           -4.41209561574735        0.59599446939164        0.75633749761760
H           -5.31347004521825        0.86381693374874       -1.28471783038778
H           -2.93029917971586       -1.67947581434258       -0.64296824267752
H           -5.09255530024119       -1.67076980922966        1.13855011563962
H           -2.83462328061983       -0.62505742233098        2.23642689895650
H           -2.56741379727568       -2.99069154848699        1.72523945170763
H            0.73119874232912        1.52129872144462        0.37444926214231
H            0.76844189251079        2.37437242950941       -1.84894036436905
H            2.96547115682862        0.79722228292983       -1.57875594630992
H            3.76111419747504        2.79859038880233       -0.62896277777681
