48
 energy: -84.735452844293 gnorm: 0.000596883510 xtb: 6.7.1 (edcfbbe)
C            5.65699597368310       -0.07874923175880        1.15229635366125
O            4.80313579803063        0.49249565917705        0.16333103267586
C            3.45932279939397        0.42644597085671        0.46922854955574
O            3.05332303602746       -0.92406812561950        0.41266537693840
C            1.68377743737321       -1.10976019169357        0.69709758901673
C            1.41604458903142       -2.61087586025159        0.78206898841170
O            1.91192483877332       -3.08311657519722        2.01331556379865
C            0.84212722006713       -0.42922982784136       -0.39981201359220
O           -0.54707230755136       -0.70386603279992       -0.29303735400572
C           -1.24920838665412       -0.13638675822523        0.78184385101728
O           -1.76881660584700        1.12149870308595        0.46327312819650
C           -2.67422557129089        1.11831072231045       -0.66441343352975
C           -2.91003786887134        2.58213682432777       -1.07028234903948
O           -4.41426539823198        2.86240888161926       -1.17731270259146
C           -3.90247158507826        0.26076432010584       -0.27877091019898
O           -4.85281963965608        0.26110464908400       -1.31852877979358
C           -3.41410196533672       -1.15539101492249        0.03641863803909
O           -4.48348656482628       -2.02085935057942        0.34230455150022
C           -2.38989718695410       -1.09818203164100        1.17388516310078
O           -1.85847017865183       -2.35788074975537        1.47406804672116
C            1.17655218862236        1.07334685893419       -0.43797100108450
O            0.61978468625521        1.72339763481475       -1.55438436560826
C            2.69750345209569        1.27949460946809       -0.55210123555692
O            3.02941483982650        2.61997640349287       -0.31915259727864
H            5.41498399435040       -1.13236784253526        1.30143836398968
H            5.55401028181087        0.46222543443284        2.09734343973021
H            6.66327015669856        0.03191864535513        0.76007577874604
H            3.26234853991898        0.82628213337201        1.48791621578142
H            1.46106160095542       -0.66298200638821        1.67995765281573
H            1.92504684471010       -3.09330850665482       -0.05956199984773
H            0.33346002236221       -2.76537158740774        0.71364033180221
H            1.76257326805573       -4.03830810380218        2.06582869026666
H            1.11252664507213       -0.86872993435759       -1.36637695356976
H           -0.59840022096830        0.01906738343981        1.65013302803059
H           -2.17388785479750        0.58520268975174       -1.49052625392305
H           -2.60018401849228        3.19039576387540       -0.20042658890631
H           -4.92057659997880        2.80161173172579       -0.33745790774752
H           -4.75496579763619        2.17353289034585       -1.79240245676078
H           -4.35604398452729        0.67215572818315        0.64218133310930
H           -5.28302840554311       -0.60612912323844       -1.36348713976361
H           -2.92907713834395       -1.58281708130444       -0.84793303795913
H           -4.94767725382830       -1.70731596433552        1.13397230043324
H           -2.87229008874911       -0.66959097865566        2.07153813836976
H           -2.56881825304275       -3.01711629172619        1.39012937382413
H            0.83309177771324        1.54763013014811        0.49319529806105
H           -0.32358571419141        1.89527351503349       -1.41677992265426
H            3.01889422621563        0.96242693152289       -1.55372396908835
H            2.58568837151199        3.16214195953624       -0.99150082397367
