48
 energy: -84.749545370212 gnorm: 0.000576422571 xtb: 6.7.1 (edcfbbe)
C            5.60452007935533       -0.04702408540369        1.07050501569881
O            4.75427180802826        0.62794315079663        0.14631353485831
C            3.40409250147177        0.46947485426556        0.40677550610758
O            3.05623616865662       -0.87238672278086        0.20400932042065
C            1.68667094193733       -1.16063344709795        0.50315348508124
C            1.50652549285581       -2.66467450072175        0.46699798456697
O            0.73175405106167       -3.01952822515007        1.76486874886407
C            0.82245719378286       -0.36493956167990       -0.50646092339042
O           -0.57222363358491       -0.64710475142558       -0.37808242949107
C           -1.23008469110496       -0.18643967381167        0.76716010817860
O           -1.75963105836147        1.10329778728443        0.60844130755387
C           -2.65516512024392        1.23219974402137       -0.49372680648775
C           -3.10494867031155        2.69895544890170       -0.52037603958452
O           -3.67351814408989        3.10122026435015        0.69816643861467
C           -3.85062406496888        0.27698197490840       -0.34903874389012
O           -4.70094074427857        0.31509352968319       -1.46609286450080
C           -3.35324135657305       -1.15340030797542       -0.09644965687820
O           -4.41052888630571       -2.03077333504910        0.21207046652273
C           -2.38228268886166       -1.15791536248654        1.08392092274823
O           -1.87819439420041       -2.44131713878781        1.33743616564086
C            1.12257319780712        1.13718032654408       -0.46694692513721
O            0.44956558931273        1.84343886038330       -1.48599022284893
C            2.63546456480459        1.40243535826543       -0.53974162903371
O            2.92809545787968        2.72441565757084       -0.17132834480373
H            5.39562102579011       -1.11799964252117        1.06197313255045
H            5.45692737886881        0.35380305299573        2.07783848795812
H            6.61539854694106        0.15152252382506        0.72786780090106
H            3.17083921684281        0.76195547032429        1.45674151177582
H            1.49607829688599       -0.78121095917642        1.52555106052537
H            0.79232192876555       -2.89586685275833       -0.34540965621139
H           -0.24543656414935       -2.85169093838142        1.67657032194367
H            0.88467364858353       -3.97738013662598        1.89260844926868
H            1.06524281988772       -0.75233434271000       -1.50434516306059
H           -0.55305035932313       -0.11374750806393        1.62618649137824
H           -2.11294567242992        1.00292225182772       -1.42115139574043
H           -2.24024198686660        3.32259376099869       -0.77551544710594
H           -3.88295307597622        2.81939281504437       -1.27603280442220
H           -3.00575198716198        2.99959679433728        1.39123574120644
H           -4.46412706744798        0.60246440890834        0.49921690396222
H           -4.19636567743607        0.12141265587411       -2.27037521559449
H           -2.81130338466385       -1.51188985745110       -0.98728553648882
H           -5.16335369855297       -1.82476645705634       -0.36195480720644
H           -2.90497872997229       -0.77562553072533        1.97356445759417
H           -2.62589675322387       -3.06348376295341        1.31621667940540
H            0.74435260640456        1.56410710816191        0.46919877752368
H            0.72746311865906        1.49989052433158       -2.34891148918349
H            3.00222053377885        1.19054271362012       -1.55651820841327
H            2.40555725007457        3.32664303475182       -0.72553255803463
