48
 energy: -84.600110382371 gnorm: 0.000624263319 xtb: 6.7.1 (edcfbbe)
C            5.65693672089830        0.21132295266959        1.39434000426590
O            4.84375559839805        0.68935499496995        0.32745583279436
C            3.48478798346589        0.56457246137743        0.54480550505354
O            3.14630073627033       -0.79957334718594        0.49116199444131
C            1.76550231973032       -1.11758599380440        0.67455399444420
C            1.50576361282002       -2.54808369086188        0.54579339981404
O           -1.01573464784044       -3.65484040998192       -0.19340598838077
C            0.88319681031254       -0.38799756567601       -0.39548402855682
O           -0.49717305728833       -0.61226444603051       -0.21619909423992
C           -1.13498292871290       -0.01716817706205        0.88675245389462
O           -1.61918914934748        1.25186836753514        0.52987394227450
C           -2.53074100697855        1.19777569731780       -0.57115446364946
C           -2.87585138438899        2.62835176380143       -0.91331607915071
O           -3.75414069192590        2.57878903626699       -2.13278982094740
C           -3.76133553045186        0.32527261151794       -0.20664232287036
O           -4.64105662371400        0.23509605016143       -1.31525666888009
C           -3.33602630592914       -1.06497218055326        0.28310922329000
O           -4.43586761428520       -1.77389514347581        0.80775223380566
C           -2.29014282704948       -0.91268917732904        1.39395795405811
O           -1.83073376287357       -2.12336222363740        1.89761722125838
C            1.23393953751579        1.11784665159004       -0.40222784494938
O            0.61777670132468        1.78656009921337       -1.47252693205035
C            2.74567056505078        1.34155680451660       -0.54662179930192
O            3.05346434706047        2.69899607346421       -0.40622799517729
H            5.48430743499198       -0.85407562815092        1.56052053602275
H            5.44299554452070        0.76798644743675        2.31149751860304
H            6.68000222583575        0.38560513018851        1.07546479885270
H            3.20459722231141        0.97936140985428        1.53833762552360
H            1.43568108465759       -0.76456052702900        1.66641380813657
H            2.44513163008785       -3.05287035328241        0.27165094698077
H           -1.00467194960484       -4.59732865965602        0.00487204984035
H           -0.10231722746841       -3.32374787638133       -0.00181582127374
H            1.10136624157871       -0.80871544697282       -1.38177243279798
H           -0.44332904300644        0.14990114805973        1.72025495203446
H           -2.03255001067421        0.71173334362867       -1.42640008185194
H           -3.44507883068640        3.07853828847052       -0.09228091904773
H           -4.48439025802633        1.90594111989763       -2.00595916875448
H           -4.10273953641171        3.47939707834097       -2.28657553660278
H           -4.33321060749920        0.81112116482205        0.59314661992945
H           -4.24431946181872       -0.34107854812494       -1.98766657922034
H           -2.86629484778075       -1.63070273446431       -0.53800359593817
H           -5.12910914506110       -1.82676125581786        0.13186720115793
H           -2.75166780116745       -0.38478674904057        2.23897838510975
H           -1.57448269885650       -2.70955266360236        1.13962341348377
H            0.92400793396773        1.55987963967202        0.55466183173434
H           -0.26935784124775        2.08376024293725       -1.21286089894633
H            3.08394100439516        0.95736209645529       -1.51961184430843
H            2.55581651459011        3.18993612922927       -1.08176557184692
