48
 energy: -84.856338430190 gnorm: 0.000270528423 xtb: 6.7.1 (edcfbbe)
C            5.70675294050448       -0.01055343241645        0.97839161892739
O            4.76621425839111        0.46655636922921        0.02132992124686
C            3.44580743184592        0.40637088528041        0.41881111231862
O            3.02570050581910       -0.94354799945871        0.39149746563257
C            1.66103836712805       -1.11669344165667        0.73144349100051
C            1.37652850567309       -2.62200555167861        0.80107920180355
O            2.07367298426838       -3.24655300752419        1.84525030486028
C            0.78279745600000       -0.42531185425782       -0.32769492855627
O           -0.60383357768266       -0.68263956938134       -0.17449457454884
C           -1.26828871083598       -0.11984700425505        0.92420562920475
O           -1.78992367448603        1.15023788258078        0.64799023817657
C           -2.67967714290374        1.18115989449450       -0.46516456192328
C           -3.12248441154598        2.63961443616151       -0.63011417566282
O           -3.71928251523769        3.14781970895504        0.53529509951302
C           -3.88073222585314        0.25092479635134       -0.24957029299864
O           -4.61566066592053        0.22538414392567       -1.44733413120574
C           -3.39812044113383       -1.15472351951624        0.13699503500415
O           -4.47302583379843       -2.01615820832124        0.42822201395186
C           -2.41735491227551       -1.07005472236630        1.31212450572804
O           -1.89095724032399       -2.32219127590645        1.65459288802103
C            1.12139949559740        1.07131314288435       -0.39761651671651
O            0.43288266302694        1.73248169961329       -1.42832960584492
C            2.63954627166036        1.27658169241253       -0.55577498344679
O            2.98717929085005        2.61106723954159       -0.30057707968497
H            5.56413189981609       -1.07649119997819        1.16047792978688
H            5.60917416297507        0.54374010338916        1.91578998455242
H            6.68179462429784        0.16907605058396        0.53523531468827
H            3.31708517227649        0.80903903697374        1.44535793827919
H            1.48511527085336       -0.67276147187043        1.72419602093870
H            1.63060746281411       -3.07230379922886       -0.16517950328180
H            0.31395154697817       -2.76435306541667        1.00709062906278
H            3.02301637800316       -3.15032832148186        1.68419083750005
H            1.01301369117518       -0.88820263929775       -1.29585186884577
H           -0.59919291289878        0.01406063637645        1.78091845815790
H           -2.15218019880450        0.86054323763676       -1.37060551244370
H           -2.24836972588116        3.23619737149575       -0.91453050173606
H           -3.87566678149512        2.68757255255742       -1.41742213498534
H           -3.06547542261913        3.10326038908578        1.24783036633018
H           -4.49799579211815        0.66261501957673        0.56747743323009
H           -5.25495405579931       -0.50320522430216       -1.40610807060880
H           -2.87899318129564       -1.60358006596011       -0.71641159532009
H           -4.99547300928976       -1.65328512386808        1.16013057937661
H           -2.92962818211691       -0.62358540008663        2.18196997658424
H           -2.59325778165642       -2.98662641875028        1.55224008143204
H            0.79568384910668        1.56659268789659        0.52414689790055
H            0.64296125814543        1.31898752658111       -2.27984673962853
H            2.94836999052834        0.98334723741899       -1.57148575490273
H            2.42953592290597        3.18850758685929       -0.84704843857023
