48
 energy: -84.630945714340 gnorm: 0.000505047818 xtb: 6.7.1 (edcfbbe)
C            5.66565814425313        0.01731339090326        1.24892907875879
O            4.81119291203602        0.57527148786590        0.25465755441547
C            3.46270215310597        0.47735025106911        0.54823593409375
O            3.08678991544526       -0.87420977616744        0.48900570913766
C            1.71705777706997       -1.12427965142381        0.78789152978026
C            1.60998020311175       -2.65400900702104        0.93765096314927
O            0.33540711231587       -3.18182771240659        0.28126947248163
C            0.86468157392840       -0.42472708005644       -0.30803989870096
O           -0.53858501321241       -0.68096021648490       -0.20382300165574
C           -1.21272203032404       -0.09837184004811        0.87769811972282
O           -1.69593734859790        1.17280314852117        0.55365470479492
C           -2.57612445649659        1.16137471708523       -0.57646172104409
C           -2.74881689411380        2.60159117559975       -1.01774180647740
O           -3.40772140563753        2.47133408358568       -2.41223544472412
C           -3.85282102028315        0.38379057372655       -0.17287931307979
O           -4.76354187770271        0.41314462876701       -1.25028276956947
C           -3.45614928487108       -1.04776918373975        0.19470753400771
O           -4.56246401763577       -1.82908662855916        0.59094186349695
C           -2.38053587318501       -1.01985531024907        1.28704596239922
O           -1.88009193767791       -2.30264886992840        1.56136918817635
C            1.17753873368974        1.08381031287693       -0.31615635211511
O            0.54939441464693        1.76606105607688       -1.37677704849419
C            2.68825781040869        1.30834905941433       -0.48059908983215
O            3.00951561991270        2.65821232070442       -0.29126214982530
H            5.43822258491486       -1.04030200114146        1.39554508478663
H            5.54490527394919        0.55549562196669        2.19370930584208
H            6.67328572394996        0.14439840026472        0.86502162298004
H            3.25006940089378        0.87772363995823        1.56492527213237
H            1.49317309379693       -0.62902948195454        1.75502667691733
H            2.40024291905842       -3.05507334480947        0.27256933923622
H            0.17954748462055       -2.85717257846642       -0.63039894636656
H           -0.43307620343289       -2.88183837731946        0.84465236800726
H            1.13948266978041       -0.82699591112121       -1.29035548806050
H           -0.54899406430677        0.03816324346062        1.73822784211742
H           -2.10223851913418        0.60229745988073       -1.39894330640350
H           -3.53345838281477        3.05519496906660       -0.37352527681815
H           -4.23282306021978        1.93159752959192       -2.36174446519895
H           -3.59163942688501        3.38049536818634       -2.71877593467996
H           -4.29946874277800        0.87780315790676        0.70855972176649
H           -5.39716647782894       -0.31413454712273       -1.15407460155333
H           -3.05430726902137       -1.54335579771190       -0.69540927080268
H           -4.97286832640893       -1.44557136739549        1.38052855399177
H           -2.81551461250104       -0.58074923346392        2.19989334935230
H           -2.62470861605520       -2.92715505260618        1.60340043538237
H            0.87822982876475        1.51925595608209        0.64774763421948
H           -0.34216129983627        2.06011955577360       -1.11644437591653
H            2.99701143470456        0.96943906012688       -1.48029053919581
H            2.49243437037573        3.17754470625865       -0.92976105744674
