48
 energy: -84.742573945672 gnorm: 0.000300622500 xtb: 6.7.1 (edcfbbe)
C            5.60259334509794        0.04540039027344        1.34584485177899
O            4.78367516367440        0.57598068747361        0.30714385157452
C            3.42554019220206        0.47193814224917        0.55014808077303
O            3.06293742689879       -0.88287156535116        0.51657947428853
C            1.69194211272324       -1.13064642811072        0.79738769170338
C            1.60208917089385       -2.65799243351535        0.96613077781341
O            0.27398038803770       -3.19054636088198        0.43724860952867
C            0.83879826794705       -0.45841260075021       -0.31804483453286
O           -0.56556043832872       -0.69604299581740       -0.16283230123817
C           -1.21662932791367       -0.07070685825227        0.90884542953212
O           -1.71390406817945        1.19268641433609        0.56194670974484
C           -2.63575865320644        1.16286607946590       -0.52637299614910
C           -2.97241757630321        2.61223567897280       -0.85872270027358
O           -1.84555203564152        3.18181871745950       -1.48668974140506
C           -3.88235231388481        0.33865398288602       -0.15079419341245
O           -4.84794212496305        0.33747055563617       -1.16447233608313
C           -3.41826304602774       -1.07462713069934        0.23066833132144
O           -4.46505903718777       -1.93673906126292        0.59436701258032
C           -2.38069802511723       -0.97114604253984        1.36303840256426
O           -1.88974871928348       -2.23465053787755        1.72425227557465
C            1.16935820752564        1.03945976228078       -0.43731732861820
O            0.60842524032939        1.60567081125427       -1.60458096563997
C            2.68816437176831        1.25579321212268       -0.53984751776582
O            3.00026174447650        2.61459375495477       -0.39564369255856
H            5.37107266976704       -1.00850487707461        1.51080771670998
H            5.44746156537962        0.60782793744332        2.27127200066954
H            6.62319051161743        0.16451257565497        0.99508784615576
H            3.16840757339943        0.90284374158429        1.54383705602324
H            1.45054501715456       -0.62258943802234        1.75364572388975
H            2.32884944745969       -3.06475763554275        0.23505948564513
H            0.04770206073541       -2.89157748529303       -0.46837371224571
H           -0.45132400296872       -2.86847420957387        1.04646248434841
H            1.08225208781816       -0.92185535326981       -1.28220423490057
H           -0.53615279670732        0.10066829973560        1.74951946251297
H           -2.14669153809190        0.70540024989473       -1.39842594055384
H           -3.20592566026642        3.13548376776108        0.07505737973633
H           -3.84519408722151        2.62536714676850       -1.52075835149415
H           -2.01632726361217        4.11367645886617       -1.68229006888015
H           -4.36593807610438        0.81335491694396        0.71204952606044
H           -4.53866428915924       -0.18328430393978       -1.92031602163094
H           -2.93633101766444       -1.54581641193053       -0.63392318817934
H           -5.11571128473863       -1.47049291027748        1.13815155846993
H           -2.84219905594034       -0.48376849634221        2.23551212237419
H           -2.64108269039406       -2.85441414965051        1.74566562062479
H            0.81574257237722        1.56568818195338        0.45867118529316
H           -0.23744786951602        2.04938884260986       -1.41577184291029
H            3.03761369797901        0.87356921107146       -1.50979919991438
H            2.56108315103171        3.10052871248875       -1.11260153189930
