48
 energy: -84.856401879235 gnorm: 0.000257944113 xtb: 6.7.1 (edcfbbe)
C            5.63169176679460       -0.02632787609228        1.11210229542261
O            4.77494393232463        0.56348867843879        0.13627823885142
C            3.42560780303561        0.46257534779506        0.42278674462154
O            3.04625585783315       -0.89460734275776        0.42224127599153
C            1.68014010620834       -1.08662918153051        0.72700684851284
C            1.41529867418027       -2.59671978951721        0.80459775693685
O            2.06930824445773       -3.21346180595299        1.88190122636718
C            0.80660330154819       -0.41930532105033       -0.35452724840481
O           -0.57669054453749       -0.66662597717585       -0.18239513472473
C           -1.24898284512471       -0.07432624149954        0.89667811192379
O           -1.78346843172908        1.18385127829557        0.59097202334252
C           -2.68013703194877        1.18346160876664       -0.52270254630466
C           -3.20599173852583        2.61669065526661       -0.66365353033662
O           -2.20085344172808        3.53779444834704       -0.98947631227411
C           -3.85282002863116        0.20553038816503       -0.30605456944665
O           -4.70720899469177        0.16342965240338       -1.41546942579535
C           -3.31591187024721       -1.18113515101877        0.07637602708418
O           -4.32805043248620       -2.12310834498794        0.32805039580287
C           -2.38757965864254       -1.03189514873902        1.29274852753165
O           -1.85296939939479       -2.26129854526134        1.69769309892358
C            1.15255263397460        1.07053581131217       -0.48340871728615
O            0.45517985989405        1.58864550097332       -1.58496691993457
C            2.66711529863791        1.23645425368449       -0.66652926828885
O            2.94575260588099        2.61052010904652       -0.61699712929905
H            5.41251931055646       -1.08947070214764        1.21763585397823
H            5.50634260881013        0.47558109314836        2.07568077629501
H            6.63968475098839        0.11976208454928        0.73611571761196
H            3.19853908254041        0.90380830814091        1.41907758610753
H            1.47101951209899       -0.62402683176218        1.70657233239913
H            1.81688228447426       -3.06322374182311       -0.09617809470447
H            0.33200404098319       -2.74776165555601        0.85360521501077
H            1.64269823347382       -2.95988491407181        2.71257570714677
H            1.02373142532146       -0.89735169282575       -1.31658373597760
H           -0.58618706805024        0.09376864211438        1.75261721776352
H           -2.11550272305634        0.90406797624088       -1.42257641765749
H           -3.69632117836633        2.89877771511856        0.27741005584935
H           -3.93637099320677        2.64879542466193       -1.47337116482095
H           -1.51979009679941        3.48633096362926       -0.30516853906902
H           -4.47261024376261        0.58546304100837        0.51693075234473
H           -4.24838812333488       -0.23272815352797       -2.17047770722985
H           -2.72167016651287       -1.59415809725680       -0.74682805336515
H           -5.05365024445399       -1.71299581944186        0.82123744226087
H           -2.93959944024009       -0.56671638795427        2.12643698348567
H           -2.53735531968082       -2.93934397755207        1.56166977172732
H            0.85848218483540        1.60434645899635        0.43515923293535
H            0.80796570760755        2.46888687421372       -1.78791936562239
H            2.95931739999519        0.80637819026634       -1.63555356685009
H            3.89606939147605        2.75095922425398       -0.74407876638405
