48
 energy: -84.848319428770 gnorm: 0.000465700875 xtb: 6.7.1 (edcfbbe)
C            5.47984973487301        0.03233832688901        1.48096522331931
O            4.75545042152732        0.51205050904110        0.35102738228078
C            3.38577825137008        0.38879567001474        0.45402285212696
O            3.04413941542053       -0.98167447432425        0.37718773013760
C            1.66331761944429       -1.23423824518358        0.54610794668922
C            1.46206954036917       -2.75141950132575        0.39956405863384
O            1.90512896538529       -3.22090914861109       -0.84430926398715
C            0.81681233371464       -0.48409762150250       -0.50068074731781
O           -0.57497937670787       -0.67214301477939       -0.27325561169470
C           -1.17403873706927       -0.08049944591747        0.84626240266366
O           -1.66755882273858        1.21220945881011        0.61367311130281
C           -2.60508404113443        1.29710384729323       -0.45341057949329
C           -3.05596129581221        2.75216300579078       -0.56481091636306
O           -2.01016998011535        3.53186964681703       -1.08886406454723
C           -3.80975371711850        0.38019308142345       -0.19881277369283
O           -4.64073526995757        0.41599213934073       -1.32758471912111
C           -3.33954603126986       -1.04705574692437        0.10761652681884
O           -4.48060502043027       -1.80675092440092        0.42617437842980
C           -2.34046930026961       -1.00524855233425        1.26931272825686
O           -1.91699117736325       -2.31431405756472        1.54807075464216
C            1.20538928725715        0.99980463816281       -0.64067907071808
O            0.57142021279335        1.59323923347016       -1.73974857301920
C            2.73503602474494        1.15462505166981       -0.71546323961782
O            3.13076379764115        2.49386262811871       -0.76582421886238
H            5.30565516764574       -1.03522799442748        1.62423087756162
H            5.18550590674767        0.58010595034511        2.38097860003422
H            6.52471589621364        0.21864946254972        1.25240669366862
H            3.02171005325811        0.79367663704356        1.42429723946629
H            1.36586450681861       -0.92214719110100        1.55906064282626
H            1.98975687802998       -3.25919009889274        1.21532864228259
H            0.39315299416810       -2.96818924338637        0.45595286558619
H            2.84887460975174       -3.01954870580465       -0.92735675143982
H            0.97235835009411       -0.98293616061033       -1.46595362987766
H           -0.46509785685333        0.04259134461858        1.67485163911118
H           -2.11602803627959        1.00411553798415       -1.39054673783507
H           -3.33522367063908        3.09997259328822        0.43861891847147
H           -3.93207719412880        2.76838033045644       -1.22333996513904
H           -2.32817223198935        4.43577915943762       -1.22586028303114
H           -4.35778252504455        0.74888306759206        0.68509974397956
H           -5.31550236596227       -0.27429791262475       -1.22422744034271
H           -2.82847831754199       -1.46278141268473       -0.77177249994631
H           -4.19508089028426       -2.69430681160165        0.68932118414361
H           -2.83627902742341       -0.54961932521371        2.13644474068127
H           -1.60618183193620       -2.37846786724694        2.46180927125254
H            0.82597182813574        1.55444373487528        0.22706955467503
H            0.94370508255363        1.24874788469136       -2.56507543748393
H            3.11666255977329        0.70472473589730       -1.63905850261594
H            2.67519226878249        3.00967072950398       -0.08434273099358
