48
 energy: -84.741452007384 gnorm: 0.000487980467 xtb: 6.7.1 (edcfbbe)
C            5.57585568580196        0.12503242860678        1.41994441959956
O            4.78297746592004        0.66816234137371        0.36681245115585
C            3.41903792614994        0.51140503913210        0.53980357232346
O            3.10108914546890       -0.85553734940854        0.53937262630548
C            1.73438850651233       -1.13898628279299        0.80197709527959
C            1.68884749163453       -2.66676932897043        0.96336104720557
O            0.32772027716141       -3.21253963172733        0.54683957883556
C            0.86676461047544       -0.50077632526938       -0.32332822666084
O           -0.53327027229610       -0.72868352769613       -0.13929864148932
C           -1.17882525908715       -0.07189798489694        0.91919463727170
O           -1.69092568448687        1.18273555208406        0.56296209483559
C           -2.60587792102983        1.15022685285849       -0.52965676911610
C           -3.05991330204356        2.58925159905710       -0.80440198707743
O           -2.10648274680648        3.37215388238555       -1.47102652999973
C           -3.82224066550778        0.25938238586472       -0.19231455738343
O           -4.74885002462161        0.20935112706385       -1.24175207298375
C           -3.32938863603813       -1.13254777910056        0.22428433432491
O           -4.36277304615133       -2.01976845262502        0.56840215424830
C           -2.33429356416223       -0.97616496893202        1.38677234255378
O           -1.83449603426206       -2.21810872931663        1.80658928054539
C            1.18779069608975        0.98601667509911       -0.50783800395273
O            0.53735823037466        1.44538693492922       -1.66943938804488
C            2.70412839911548        1.20926723570389       -0.62541569205020
O            2.99421610898116        2.57626488052513       -0.73426224850170
H            5.39051362850403       -0.94529970757008        1.52117109842660
H            5.34729036889513        0.62966580776267        2.36330952024235
H            6.60466453736960        0.31169468407435        1.12781584342121
H            3.09168128593682        0.95837772713073        1.50929956571039
H            1.46317061266162       -0.64180056776382        1.75538498332959
H            2.35605942962652       -3.05721025099624        0.16952618676824
H            0.03631242530695       -2.93099501102565       -0.34602877777941
H           -0.35882129651073       -2.87994072230214        1.19210775982542
H            1.09127033975525       -0.99963582343928       -1.27444341124587
H           -0.49605322154234        0.11918574118517        1.75410445483331
H           -2.08161597472433        0.74902162730708       -1.40934423359113
H           -3.23538799102323        3.08441829048409        0.15261907622609
H           -3.99958176206428        2.54638482190530       -1.36940147892051
H           -1.93614613551669        2.99237023417593       -2.34445601854968
H           -4.35958860000855        0.72031158931764        0.64629674805430
H           -4.38681753137932       -0.29874450490924       -1.98247705207025
H           -2.80407417082119       -1.60216702586704       -0.61549089388991
H           -5.05333543768614       -1.55883178941522        1.06556743402467
H           -2.82807068340930       -0.46576175315105        2.22750822716047
H           -2.57542205756806       -2.85131499092954        1.80703698026906
H            0.81692888456348        1.54920686018223        0.36595414885158
H            0.94392662350336        2.29034943904746       -1.91861130494006
H            3.06937757800990        0.75305627159615       -1.55213297688233
H            2.90586375350121        3.01372842933096        0.12526856436957
