48
 energy: -84.736590717244 gnorm: 0.000551279347 xtb: 6.7.1 (edcfbbe)
C            5.63583459525097       -0.06746570452297        1.23897467760465
O            4.82478925622581        0.50688466362882        0.21778189819597
C            3.46682517511782        0.41852383789951        0.44778965961770
O            3.08512721111015       -0.93860202528520        0.36006994790681
C            1.71001372225563       -1.15422024161908        0.58949463284950
C            1.44657192032051       -2.66164794519667        0.55045584710601
O            1.61985833777017       -3.13605300659775       -0.76308524151307
C            0.86081014920083       -0.42240112914738       -0.46696883788201
O           -0.53122768382884       -0.64500176715427       -0.28492427509413
C           -1.16526684643407       -0.07104989562769        0.82889615423023
O           -1.67151451400595        1.20794719992332        0.58976088151434
C           -2.59608650781543        1.28404347945769       -0.49748591517138
C           -2.97879317040381        2.75310895367331       -0.63656853509835
O           -3.81375349449002        2.78453013131363       -1.95138287210466
C           -3.79470400867967        0.32773145793866       -0.22601578966316
O           -4.72682048780492        0.35924890719168       -1.29340412562101
C           -3.30133485773538       -1.08841390314182        0.06631683701936
O           -4.33665051112833       -2.00952698594322        0.32638003074450
C           -2.30945693530952       -1.02211725754665        1.23425432046261
O           -1.79190693259275       -2.28304082684146        1.56029249025588
C            1.22733320374204        1.06377740011328       -0.56318300100305
O            0.62986943123453        1.68370750582624       -1.67155178211904
C            2.75317705027650        1.26381609776212       -0.61315667282351
O            3.08046624406450        2.60856688149455       -0.38939621887143
H            5.42980171852061       -1.13494894813722        1.33334556521520
H            5.45274416167256        0.43322962919232        2.19404300693842
H            6.65963186731670        0.09608670206513        0.91644435544228
H            3.20546860026257        0.80701070986309        1.45648466131462
H            1.45576268314549       -0.78170186773642        1.59582180221485
H            2.15556115434830       -3.14244504565156        1.23427722739886
H            0.41945316603554       -2.82309653299410        0.89871487234953
H            1.46906555798555       -4.09213848241181       -0.77091813036964
H            1.06650940502636       -0.91000385493429       -1.42836347783478
H           -0.47511441302284        0.04623629205626        1.67296886489745
H           -2.08703760386466        0.95356418097481       -1.41629114026833
H           -3.72736822693423        2.95795207220700        0.16528411090951
H           -4.56234296829255        2.13662715902591       -1.89926698090463
H           -4.13215931637962        3.70249042359365       -2.04387484868811
H           -4.33980392427245        0.70530358823145        0.65145016021139
H           -4.42174627692357       -0.22865270106858       -1.99965209764899
H           -2.76472297102854       -1.48590423323964       -0.80333260352547
H           -4.97325582808123       -1.62590326134815        0.94702532387983
H           -2.80554912830595       -0.57940117306056        2.11535488417195
H           -2.50045124158417       -2.93632936647704        1.42435780442542
H            0.82915101122379        1.59745467340441        0.30785550988377
H            0.88759014288231        1.22168433310176       -2.48444920608885
H            3.13734741030496        0.93019831051444       -1.59053067640610
H            2.50216566746252        3.15975256303886       -0.94329109877449
