48
 energy: -84.739209088330 gnorm: 0.000413184983 xtb: 6.7.1 (edcfbbe)
C            5.62634707946156        0.04336596035170        1.34986182526686
O            4.83751049881853        0.60540362321949        0.30395763600049
C            3.47548961530847        0.47560667133205        0.48377573519774
O            3.13290157866121       -0.89407271041909        0.41463597598335
C            1.76427165883365       -1.14248149924656        0.65393070493791
C            1.54118610752499       -2.66106977399887        0.63385247869316
O            2.16559791810460       -3.32572893112501        1.69951758992819
C            0.90194810411540       -0.44208456267778       -0.41551566943795
O           -0.48680997745153       -0.68547560835518       -0.24299964245254
C           -1.14094099150113       -0.11018811160097        0.86042889613600
O           -1.66759178925116        1.15823338183400        0.61928742758722
C           -2.57526434153680        1.23445711926066       -0.47922853382034
C           -2.98077544010357        2.70325524838926       -0.57384651707412
O           -3.92735687138158        2.81010158877706       -1.79931822454599
C           -3.75147107816995        0.23977927543672       -0.26508121113313
O           -4.52294787531828        0.22952470573649       -1.45049005299071
C           -3.24822670035937       -1.16421376088173        0.07452394568623
O           -4.31056378202813       -2.05584418990591        0.34050046463423
C           -2.27435313346083       -1.08078526134164        1.25127822269663
O           -1.73043250717293       -2.32744583161146        1.58836663807450
C            1.24140495772513        1.05725086978609       -0.53932158018812
O            0.57492122769972        1.64145428150642       -1.62304848601836
C            2.76527457382774        1.25246644008087       -0.64341203746161
O            3.12354441020284        2.60212868784798       -0.67943928011647
H            5.43336659061236       -1.02696414096558        1.44006425425478
H            5.40696156580329        0.54142905068707        2.29893441007423
H            6.65693197650577        0.22204416517835        1.05907691001169
H            3.16625858350296        0.87317214033675        1.47713117136452
H            1.50474191565395       -0.74734342381883        1.65123709871130
H            1.99299770710806       -3.06455464144668       -0.27359260025950
H            0.46075589791578       -2.84052868251029        0.62885754146467
H            1.71694166297478       -3.10802161985673        2.52868739082417
H            1.11358705008340       -0.92499966482285       -1.37791739436617
H           -0.46274677464544        0.01806296811404        1.71205813534493
H           -2.04373588456969        0.92168810029761       -1.39162407629764
H           -3.67947315487639        2.89507776641307        0.26964754489575
H           -4.39493220183612        1.94788113095161       -1.94181224367621
H           -3.35101814419017        3.00618446814002       -2.56378802798998
H           -4.36711317337429        0.60413483192641        0.57776502407770
H           -5.12345840710345       -0.53135247262150       -1.44199987964746
H           -2.71787692880340       -1.58187288139069       -0.78759886290393
H           -4.82643456377919       -1.73383424361337        1.09537136249221
H           -2.79118059095267       -0.64298585531827        2.12359867402798
H           -2.42225745483399       -3.00143463541873        1.47580915635047
H            0.85789325288953        1.58568344954040        0.34250743940883
H            1.00368725178386        1.38498502655063       -2.45372313326835
H            3.13265459387034        0.83049924362076       -1.58621109582911
H            2.72752797859363        3.08171427921543        0.06314186790044
