48
-84.798119072329
C 5.349541 1.834782 0.203640
O 4.254711 1.337492 0.949757
C 3.475807 0.425744 0.269771
O 2.785836 1.114672 -0.753799
C 1.827540 0.384175 -1.489713
C 1.390943 1.363270 -2.598893
O 0.420827 0.863365 -3.467133
C 0.721257 -0.089246 -0.516717
O -0.268472 -0.904847 -1.132641
C -1.638391 -0.606721 -1.216219
O -2.401281 -1.589054 -0.553651
C -2.617810 -1.430638 0.843300
C -3.507649 -2.605675 1.277755
O -3.684942 -2.646656 2.673846
C -3.276678 -0.080704 1.165271
O -3.434399 0.124149 2.545543
C -2.359649 1.021574 0.632422
O -2.921989 2.301972 0.786779
C -2.163501 0.800759 -0.870589
O -1.355191 1.789982 -1.444782
C 1.460592 -1.004951 0.484047
O 0.588099 -1.647815 1.386563
C 2.510251 -0.222231 1.271390
O 3.246255 -1.078817 2.099012
H 5.006055 2.364128 -0.688154
H 6.018021 1.018496 -0.091701
H 5.873841 2.519464 0.865849
H 4.098570 -0.377510 -0.179352
H 2.276567 -0.507610 -1.953218
H 2.277409 1.579745 -3.200704
H 1.063264 2.290170 -2.116291
H -0.430301 0.941539 -3.018989
H 0.297993 0.778611 -0.010905
H -1.883282 -0.799256 -2.274514
H -1.672171 -1.467393 1.404405
H -3.074284 -3.536477 0.896202
H -4.503607 -2.489045 0.845606
H -2.846224 -2.871638 3.094719
H -4.250435 -0.017009 0.650662
H -3.834425 -0.675182 2.923915
H -1.405662 0.968147 1.179411
H -3.259266 2.357461 1.689412
H -3.173087 0.849782 -1.316505
H -1.670566 2.640190 -1.107713
H 1.985904 -1.775497 -0.102461
H 0.061854 -2.253395 0.849243
H 2.030001 0.573943 1.858284
H 2.612122 -1.566250 2.641322
