48
-84.843575636021
C 5.020252 1.734009 0.632032
O 4.023892 0.867607 1.166003
C 3.274184 0.189348 0.225664
O 2.430671 1.114008 -0.430519
C 1.514948 0.545640 -1.357118
C 0.853040 1.718192 -2.082073
O 1.743708 2.356121 -2.958594
C 0.553712 -0.373603 -0.582445
O -0.407559 -1.032331 -1.403272
C -1.802597 -0.916545 -1.269900
O -2.293582 -1.719675 -0.219186
C -2.282492 -1.159498 1.094323
C -2.996606 -2.184927 1.994429
O -2.936506 -1.824437 3.352296
C -2.989700 0.204241 1.171307
O -2.776006 0.816884 2.418685
C -2.470146 1.161071 0.090822
O -3.293345 2.297066 -0.026701
C -2.522654 0.443940 -1.262194
O -2.077621 1.237196 -2.322930
C 1.407419 -1.486822 0.056381
O 0.631651 -2.372077 0.825411
C 2.482478 -0.893709 0.970961
O 3.398652 -1.873021 1.374446
H 4.558293 2.568161 0.102328
H 5.682040 1.183609 -0.042028
H 5.575694 2.096088 1.492362
H 3.925835 -0.307013 -0.523769
H 2.061401 -0.059703 -2.097031
H 0.470924 2.422286 -1.334027
H 0.028778 1.348980 -2.691543
H 2.482261 2.714277 -2.446919
H 0.081175 0.216907 0.205683
H -2.132243 -1.443612 -2.176505
H -1.251239 -1.034621 1.453581
H -2.560899 -3.170455 1.813420
H -4.054359 -2.220644 1.724014
H -2.065006 -2.046407 3.709883
H -4.067838 0.058424 0.993158
H -3.046708 0.192181 3.115832
H -1.447433 1.477520 0.337595
H -3.369560 2.719544 0.841648
H -3.584847 0.183700 -1.418297
H -2.577385 2.068889 -2.299848
H 1.905024 -2.036128 -0.757394
H -0.020528 -2.786898 0.239402
H 2.005112 -0.421098 1.841427
H 2.915713 -2.572670 1.842684
