48
 energy: -84.843449273110 gnorm: 0.000667141667 xtb: 6.7.1 (edcfbbe)
C            3.55531938949738       -0.18064638270788       -2.08428652504011
O            2.73343199704467        0.75124541450263       -1.38741529484661
C            3.13611370084084        0.98553065001153       -0.06129860587340
O            3.00709825312289       -0.16717429908949        0.72282761044516
C            1.87455407073990       -0.25396887052897        1.58985235295605
C            1.79978776888130       -1.72253768961364        2.00705608921649
O            2.91975267989037       -2.09585136799829        2.76712365901097
C            0.59697869288811        0.28585383439358        0.92446334988165
O           -0.43724775667494        0.25930498398047        1.90541380291402
C           -1.73032687353020       -0.25757439035553        1.74041739033228
O           -2.59921472333656        0.63268290034105        1.07845012256038
C           -2.57260228829498        0.65057240701558       -0.34531888068152
C           -3.62630602546352        1.68615422691898       -0.77315281872067
O           -3.61528864967883        1.90604912976704       -2.16230158219823
C           -2.89726968803950       -0.73272333239631       -0.92590817900760
O           -2.76307556986902       -0.76451419748791       -2.32510815982638
C           -1.94082519355910       -1.77802294931343       -0.34479240413818
O           -2.35031516655579       -3.08734729280776       -0.66468061245642
C           -1.94322537928599       -1.68675134934126        1.18765067839962
O           -1.03090101164251       -2.57491161564911        1.76723457655723
C            0.80811795450389        1.74075324628519        0.42443513903642
O            0.27979536535194        1.93745885646517       -0.86190706960790
C            2.28938334211013        2.15911009109199        0.45738198272356
O            2.64228733367081        2.54222966346149        1.75629544823560
H            3.54187620037105       -1.15085890416068       -1.58528298930807
H            4.58213450465648        0.19043015502676       -2.13560049792195
H            3.13405764338150       -0.26115396512108       -3.08180081770984
H            4.21259271291652        1.23304162150394       -0.04767671099203
H            2.05722211304243        0.35544374142132        2.48613358095585
H            1.71818830301879       -2.34684041839425        1.10813843980262
H            0.92343355248898       -1.88148975541599        2.63309598914881
H            3.71711300911996       -1.87254496663150        2.26462532670295
H            0.35502656284312       -0.35106683385081        0.06701762651983
H           -2.08943562149801       -0.24900495473966        2.77776446516907
H           -1.59017023892348        0.97359446907880       -0.71337437340707
H           -3.45044539929145        2.60755232757487       -0.21121936662774
H           -4.62195429238863        1.31309392120446       -0.52249818144742
H           -2.84275303603484        2.44039006690250       -2.39615868965102
H           -3.92317839369119       -1.00970944544965       -0.62973229098136
H           -3.24570634795146       -0.00266984369193       -2.69476965493578
H           -0.93377609393206       -1.60436033029769       -0.75074294941899
H           -2.49454772519411       -3.13955131019038       -1.62127224451968
H           -2.96975734203366       -1.94918642830366        1.49719913583030
H           -1.24499301942184       -3.46643633694310        1.44813274058878
H            0.25173761038592        2.39864333028438        1.10098884094798
H            0.88602234091660        1.53208933386288       -1.50614053800961
H            2.40171253854556        2.99334585952889       -0.24931793663307
H            3.48957619135559        3.01232360875492        1.75354352597135
