48
 energy: -84.822740709034 gnorm: 0.000206735011 xtb: 6.7.1 (edcfbbe)
C            5.51994753477804        1.81071537163172       -1.05121035601714
O            4.82344751605616        0.76889579643006       -0.38081740443591
C            3.55039558947778        0.52643750489824       -0.85409015199665
O            2.70222384489234        1.57922061492785       -0.44589626899816
C            1.37095972769607        1.44777185493110       -0.90652333109441
C            0.64771932858558        2.74381644910275       -0.52752275557066
O            1.18326347432595        3.84715074330428       -1.20615003119461
C            0.71471283095415        0.18154407660299       -0.32494048234117
O           -0.54091999613621       -0.01006318117937       -0.96628050288534
C           -1.68768627121012       -0.27641043221226       -0.21010894857403
O           -1.37354006522364       -0.79170681043999        1.06046330061095
C           -2.44576557520875       -1.54520460977676        1.62179456318262
C           -2.31182480470972       -3.04186186992860        1.26773745243444
O           -1.07667728574096       -3.58068554149569        1.64839136645126
C           -3.83702551337430       -1.03509113705571        1.18551388050406
O           -4.81574403538462       -1.32042358844623        2.15041109121426
C           -3.86334477072673        0.46430993998162        0.79886538062519
O           -4.95642529362845        0.71754440404389       -0.04704617618528
C           -2.58046231234215        0.95172954239368        0.07663952698580
O           -1.89521774134144        1.88500067483278        0.86713369511771
C            1.58896837247893       -1.06675337286818       -0.53323475230285
O            1.14963513972132       -2.14372392910817        0.26336811339068
C            3.08133464797433       -0.80672736120055       -0.25931488348509
O            3.86673572359961       -1.82487206472461       -0.81830197108349
H            5.02686767258450        2.77219517761402       -0.89540662598541
H            5.58611585663873        1.60025467141365       -2.12311313925061
H            6.51410002094610        1.82585447988701       -0.61243167606827
H            3.53845808114929        0.45224714627375       -1.96254822240161
H            1.37057956992766        1.35062192492162       -2.00552889730601
H            0.71504939297338        2.88364264738953        0.55809267936915
H           -0.40019320847050        2.67710547380548       -0.81636827171934
H            2.12135321024487        3.90770710746206       -0.98288219918355
H            0.57259649335402        0.33102489184069        0.75211568113392
H           -2.25379767602256       -0.99925906523043       -0.81632492611315
H           -2.31825565732485       -1.43231443896152        2.70453661358966
H           -2.47760065788557       -3.17454824982309        0.19007157064431
H           -3.08271506289715       -3.59223711580830        1.81180682801195
H           -0.38968949565511       -3.20725774697988        1.07404300172950
H           -4.16029380824249       -1.59740284403433        0.30085358139623
H           -4.60224152280399       -0.88047284709457        2.98543751138582
H           -3.95951055984113        1.06542816962914        1.71941131763870
H           -5.76203723519735        0.38531505373044        0.37451829332043
H           -2.86822928667694        1.46007209910979       -0.84564851928154
H           -1.49178853468820        1.40717452161743        1.60769872151980
H            1.47071355640710       -1.39946342027368       -1.57043385924731
H            1.24731478460644       -1.89903172154427        1.19588741518003
H            3.24975347382054       -0.73912196910648        0.82840089685791
H            3.53873343203073       -2.67814994563669       -0.49758811746250
