48
cell (100, -130) s_177 rnd169 xtb E -84.862154884
C 5.552196 -1.016605 0.079498
O 4.820453 0.056342 0.668153
C 3.462839 -0.170907 0.795390
O 2.872649 -0.193209 -0.486898
C 1.476478 -0.425434 -0.481125
C 1.031280 -0.379787 -1.951689
O 1.329031 0.852756 -2.548737
C 0.737013 0.638577 0.347036
O -0.617642 0.252845 0.521154
C -1.608518 1.202275 0.219147
O -2.168286 0.974910 -1.045527
C -2.813129 -0.288345 -1.162829
C -3.321120 -0.418715 -2.604653
O -3.589069 -1.748594 -2.955819
C -3.948424 -0.416265 -0.138032
O -4.535077 -1.684758 -0.278453
C -3.383427 -0.204098 1.270993
O -4.450871 -0.272891 2.185205
C -2.679067 1.159439 1.319711
O -2.152027 1.392883 2.600755
C 1.364120 0.770792 1.741539
O 0.732817 1.839272 2.403781
C 2.875899 0.973341 1.636096
O 3.395442 0.985160 2.938262
H 5.200640 -1.211124 -0.934045
H 5.449676 -1.920842 0.685711
H 6.586385 -0.685999 0.064846
H 3.266787 -1.139861 1.301681
H 1.256315 -1.414378 -0.053292
H 1.513293 -1.202523 -2.492008
H -0.051343 -0.496825 -2.004730
H 2.289262 0.979782 -2.520661
H 0.798309 1.600803 -0.174393
H -1.177205 2.209841 0.159905
H -2.090223 -1.095013 -0.970132
H -4.210524 0.211840 -2.732076
H -2.541316 -0.061573 -3.281143
H -4.179594 -2.127205 -2.282741
H -4.696110 0.371147 -0.327505
H -5.142466 -1.821030 0.465272
H -2.643903 -0.990222 1.489237
H -4.143495 0.070614 3.037478
H -3.421992 1.941648 1.104317
H -1.180976 1.471605 2.559972
H 1.180959 -0.165097 2.292824
H 1.232950 2.030643 3.213864
H 3.089145 1.918585 1.116476
H 4.359399 1.075014 2.899022
