48
 energy: -84.836362802219 gnorm: 0.000413166103 xtb: 6.7.1 (edcfbbe)
C            5.57798720259929        1.80263014398165       -0.67119701475669
O            4.77680189895773        0.83384692488455       -0.00242811372611
C            3.60009499696528        0.50803334773030       -0.64721082311225
O            2.69582634277086        1.58632307424794       -0.50797422759775
C            1.42909009188376        1.34376366465263       -1.09258673028418
C            0.61868636418123        2.64106949801771       -0.98916508622664
O            1.20754872510535        3.68940306337204       -1.71021386484128
C            0.73743804004390        0.16932123274971       -0.38156635987198
O           -0.51242269262713       -0.09628619914735       -1.01246525831996
C           -1.65411084922955       -0.21950374863674       -0.22856535109912
O           -1.42345614975407       -1.12032323432390        0.83617378317798
C           -2.61819964261947       -1.70862714653597        1.34626590833199
C           -2.78880836812460       -3.11634825847548        0.74688204398863
O           -1.69711599825025       -3.94536366639391        1.04824117905384
C           -3.87174533290666       -0.84941759971326        1.08976578887417
O           -4.90196636522299       -1.16096189301649        1.99053140462119
C           -3.58355892791499        0.67337366965000        1.08513448357399
O           -4.60226193459697        1.35094099848293        0.39329888962884
C           -2.23399117897839        1.05371359132855        0.42136131221643
O           -1.34854365051683        1.61637992436812        1.35404824872020
C            1.62651356559880       -1.08146017740912       -0.47435141664522
O            1.10812818128586       -2.17843836409817        0.23483182595546
C            3.05744489388740       -0.77203127638992        0.00193387777676
O            3.92957249917344       -1.81632153959062       -0.33859604371815
H            5.05731646908657        2.75934713898663       -0.72909335416868
H            5.83191699406570        1.45658947615486       -1.67681336621687
H            6.47613366395400        1.89779319073731       -0.06820670246638
H            3.77474155452814        0.31299953092179       -1.72564364395429
H            1.55768640623353        1.08560299372289       -2.15567665254575
H            0.49637483488012        2.90631721439711        0.06709912225828
H           -0.36178727256396        2.47350548368844       -1.43580481086184
H            2.09067335402268        3.84989008786267       -1.34853521245988
H            0.59091349994720        0.43680897323704        0.66786606830352
H           -2.39033978242302       -0.61751834234096       -0.94004812758352
H           -2.44523424647596       -1.81362670578732        2.42404696719539
H           -2.92195395253834       -3.03118137561229       -0.33984029295849
H           -3.67243455448039       -3.58852432326489        1.17937303291045
H           -0.89525792202639       -3.55461925286818        0.66534183690963
H           -4.28670756014625       -1.10416411659223        0.10750663309156
H           -4.61154760097211       -1.01693795928558        2.90418433402765
H           -3.54611325802840        1.02991053094575        2.12784032035623
H           -5.46366148755943        1.10097456135306        0.76290361073250
H           -2.42426709626643        1.82356686376862       -0.32895757766331
H           -1.16838438941935        0.96085832604666        2.04681122014705
H            1.66264622591346       -1.40564100538755       -1.52061777732308
H            0.91113413182224       -1.90698869906629        1.14420873427417
H            3.06146641446953       -0.60567497308319        1.09069168064961
H            3.54755928493307       -2.65284736459816       -0.02588322436890
