48
 energy: -84.827603134471 gnorm: 0.000589262359 xtb: 6.7.1 (edcfbbe)
C            5.32145793009052        1.53533332348446       -0.26418132958730
O            4.56859048722455        0.47164525883759       -0.83244122523796
C            3.25425051074580        0.77632733259429       -1.11509258323217
O            2.53569146805742        0.85984421070615        0.10025518686115
C            1.15650279636151        1.13316219700629       -0.05691684961019
C            0.61042560828284        1.40285316703141        1.34544999127625
O            1.11551637343729        2.59129358848943        1.88615891623539
C            0.47561259584663       -0.02581629152715       -0.81103152732550
O           -0.89997689855943        0.23990579614052       -1.02389655642401
C           -1.84542619879768       -0.77045018614806       -0.71782984917066
O           -1.52119982780785       -1.63342833359320        0.32110352778145
C           -1.75643616702843       -1.22436091983668        1.67389973004586
C           -1.62798415997925       -2.49304152851493        2.53274559805668
O           -0.31837171604271       -2.99153286605428        2.55707233716568
C           -3.13009945902963       -0.57136712780286        1.87524942120649
O           -3.29249686265498       -0.07168924592734        3.17566731921035
C           -3.34871688202764        0.52515834879235        0.82300298074610
O           -4.63013057816578        1.09312436430766        0.93312760046382
C           -3.22701406327614       -0.11396919094319       -0.56147390450967
O           -3.42440955170342        0.79964798475418       -1.59908472898293
C            1.17291747946121       -0.22438654882145       -2.16750070681777
O            0.67829291515323       -1.33717444175778       -2.87016097590607
C            2.69834411814680       -0.33854941710823       -2.00984399102912
O            3.32957694163497       -0.24497001570754       -3.25814309582526
H            4.93731856746628        1.80014385143141        0.72292935674589
H            5.29923008073362        2.41298786855922       -0.91747861067702
H            6.33762126655755        1.15926703742870       -0.17991940804465
H            3.16955678686506        1.74291631114036       -1.65638256645750
H            1.02638663050938        2.04782014800342       -0.66045758850453
H            0.86197083881745        0.54885658807019        1.98899845081879
H           -0.46965923336956        1.53776508398347        1.27699711051467
H            2.07957327096592        2.53130422311837        1.90249029163976
H            0.58858987108822       -0.94173807929137       -0.21258389171057
H           -1.89265644194969       -1.44147313745659       -1.59677597672227
H           -0.97860425956248       -0.51433909215536        1.98110059731904
H           -2.33047058145052       -3.24451592484443        2.15309216704471
H           -1.88713167321267       -2.24666799521725        3.56422461245320
H           -0.09117940626084       -3.29211062140095        1.66843216033903
H           -3.91832416962504       -1.32465758741991        1.75691725423879
H           -2.57986817925119        0.54706433609175        3.38923869452559
H           -2.58142077538628        1.31124547136335        0.92436327774258
H           -4.84674963636084        1.17912557009340        1.87318710330100
H           -3.97807199532665       -0.92172382744745       -0.62097234750234
H           -4.19406427516198        1.34024206262829       -1.36542429632648
H            0.93852597534103        0.63824332005802       -2.80171558862109
H            0.80619285164731       -2.13877887667084       -2.34328271215011
H            2.94907866433444       -1.29549674551410       -1.52149002974208
H            2.85923910678864       -0.82304070282339       -3.87813967481290
