48
 energy: -84.856052858286 gnorm: 0.000098560174 xtb: 6.7.1 (edcfbbe)
C            5.74520296868392        0.74268209756812        0.65962129437869
O            4.95085775626358       -0.36612198115190        0.24502702914318
C            3.71786964476954       -0.02587570988704       -0.27132685973170
O            2.91362550811328        0.45431811295456        0.79035442706387
C            1.57679732776929        0.75988813899182        0.44742493025490
C            0.93726926103790        1.32860007176363        1.72945312293745
O           -0.14297876117118        2.18989888820687        1.49706250968350
C            0.87506208990405       -0.50515026602870       -0.06803365464914
O           -0.45167904851522       -0.21046431964476       -0.47830529310888
C           -1.39034315161569       -1.22527244475132       -0.22673120429616
O           -1.88610852578405       -1.14435088736243        1.08103201564317
C           -2.57895221037988        0.08662427251606        1.31303497546014
C           -2.94315202936252        0.17245328920448        2.80166238299423
O           -2.94119623086112        1.49727765374100        3.26610388933284
C           -3.79124233290255        0.18162407889013        0.37847088647330
O           -4.59396552881856        1.31002669713785        0.60794219962628
C           -3.29133120040397        0.15460414872150       -1.07886075019924
O           -4.36032722493076        0.17460411276016       -1.99444609110636
C           -2.49461403530648       -1.13381954229658       -1.28768874440936
O           -1.87115420356345       -1.21056676485677       -2.54164119045637
C            1.65330997598268       -1.01510614702866       -1.29812161717874
O            1.12156761758187       -2.20942376670445       -1.82226816832951
C            3.11960831451887       -1.27383460881716       -0.93395762173375
O            3.88132466726455       -1.54443656728537       -2.07792225850098
H            5.25129547908294        1.28578072717310        1.46690007564067
H            5.92828887801703        1.41306117471659       -0.18471351059361
H            6.67908759892991        0.31195493794878        1.00784036422264
H            3.81453201952921        0.76674726475315       -1.04332105219712
H            1.55416376541061        1.51691037899198       -0.35247148714533
H            1.73338915450726        1.82897031262885        2.29167517581429
H            0.55294558075493        0.50398757618958        2.33326587590940
H            0.17221662887397        3.00596199190365        1.08144016410030
H            0.87460663751952       -1.26614982153285        0.72024060036349
H           -0.91788547307888       -2.21446198905841       -0.28445456515863
H           -1.89450789654086        0.91590438748508        1.07859538895993
H           -2.23252322675256       -0.45074266724873        3.35747287807486
H           -3.95256859231734       -0.20512429691629        2.97295560588991
H           -2.05239051077656        1.87064734620146        3.16230333746431
H           -4.44122301559064       -0.68888615650586        0.53584372352219
H           -4.04531698716848        2.06510277954778        0.86492763614677
H           -2.62485302445410        1.01320343239988       -1.25682768262677
H           -5.03420748518774        0.78570658965988       -1.65726737455170
H           -3.17646749101694       -1.98657297131091       -1.14558047220227
H           -2.53008093301215       -0.99904683979828       -3.22173125282448
H            1.62121197400786       -0.22620768182984       -2.06426441613821
H            0.28799668619872       -2.01369716355434       -2.27976316652396
H            3.17940954467734       -2.10348866353292       -0.21576659867216
H            3.49742806429779       -2.31774314107499       -2.52170257071072
