48
-84.825432955272
C 5.135375 0.222756 -1.696954
O 4.254369 1.203350 -1.164473
C 3.427501 0.755039 -0.156491
O 2.452158 -0.101305 -0.717182
C 1.496585 -0.591220 0.205828
C 0.708069 -1.667120 -0.538763
O 1.479540 -2.809627 -0.782946
C 0.670898 0.587196 0.765429
O -0.290130 0.189800 1.722716
C -1.673906 0.471550 1.541243
O -2.059188 0.936609 0.292432
C -2.430817 0.003767 -0.728347
C -3.056007 0.831504 -1.863173
O -2.114616 1.625453 -2.532275
C -3.423805 -1.049235 -0.220273
O -3.765142 -1.983089 -1.209486
C -2.851329 -1.741987 1.022850
O -3.779999 -2.639299 1.581894
C -2.539480 -0.685224 2.086336
O -1.909581 -1.232426 3.207295
C 1.640273 1.572552 1.443963
O 0.994527 2.714565 1.943686
C 2.780332 1.982248 0.496564
O 3.777468 2.673506 1.198885
H 4.577405 -0.561660 -2.212082
H 5.745211 -0.217507 -0.902160
H 5.769060 0.753796 -2.402387
H 3.998321 0.199688 0.618655
H 2.011559 -1.071118 1.055745
H 0.344142 -1.242605 -1.484348
H -0.119161 -1.990808 0.092765
H 2.259689 -2.547838 -1.289200
H 0.178252 1.096025 -0.076483
H -1.868591 1.339680 2.201541
H -1.536616 -0.502466 -1.113375
H -3.864698 1.441446 -1.444421
H -3.469961 0.147275 -2.606339
H -1.817613 2.319914 -1.932034
H -4.365963 -0.560601 0.054770
H -2.969791 -2.418636 -1.547213
H -1.929117 -2.285377 0.759152
H -4.230428 -3.103677 0.861364
H -3.508280 -0.240060 2.375145
H -2.423138 -2.007490 3.480132
H 2.065139 1.080322 2.326395
H 0.506802 3.154236 1.233722
H 2.378852 2.607121 -0.318853
H 3.345828 3.340974 1.754233
