48
-84.814198123731
C 5.778855 1.022932 -0.705980
O 4.677223 1.507621 0.036356
C 3.599440 0.650264 0.073958
O 2.986022 0.650202 -1.201785
C 1.829828 -0.150730 -1.290616
C 1.359719 -0.064467 -2.748846
O 1.011564 1.244573 -3.102263
C 0.732976 0.343662 -0.321889
O -0.375087 -0.536944 -0.447405
C -1.605317 0.012500 -0.853649
O -2.516153 -1.041257 -0.956244
C -2.791410 -1.713562 0.261197
C -3.659386 -2.930511 -0.087277
O -3.903877 -3.743972 1.036785
C -3.510815 -0.765717 1.232080
O -3.753603 -1.349405 2.487666
C -2.613288 0.453705 1.445735
O -3.265455 1.464847 2.185115
C -2.233196 1.069736 0.093914
O -1.409555 2.196673 0.292821
C 1.295155 0.358390 1.100201
O 0.416870 0.912630 2.046057
C 2.622085 1.143319 1.144416
O 3.216445 0.984641 2.402630
H 5.514679 0.883948 -1.757772
H 6.135518 0.072690 -0.293320
H 6.555488 1.778150 -0.614896
H 3.915540 -0.384465 0.324937
H 2.067945 -1.197233 -1.042137
H 0.471653 -0.683227 -2.884998
H 2.165823 -0.440710 -3.393715
H 1.762316 1.808971 -2.876252
H 0.448262 1.358516 -0.618345
H -1.515844 0.445712 -1.860296
H -1.851141 -2.048447 0.723865
H -3.174902 -3.489824 -0.894459
H -4.636725 -2.593650 -0.438687
H -3.077536 -4.160124 1.309569
H -4.457795 -0.438295 0.769587
H -4.140051 -2.226330 2.336949
H -1.709425 0.125531 1.978550
H -3.640577 1.042295 2.966541
H -3.164580 1.382673 -0.404405
H -1.902399 2.775739 0.892359
H 1.485849 -0.672501 1.425727
H -0.076765 1.627647 1.609184
H 2.419118 2.207970 0.942580
H 2.516506 1.105830 3.059942
