48
Coordinates from ORCA-job 3_opt_3c E -1337.086400850298
  C       5.709042     -0.029600      1.081533
  O       4.790905      0.452822      0.105648
  C       3.462684      0.401890      0.478246
  O       3.039089     -0.946405      0.461267
  C       1.664306     -1.111449      0.762151
  C       1.378245     -2.616058      0.843674
  O       2.018600     -3.219299      1.935946
  C       0.821980     -0.433807     -0.334822
  O      -0.567770     -0.701158     -0.231668
  C      -1.274590     -0.131893      0.839444
  O      -1.785812      1.130228      0.512733
  C      -2.674595      1.113583     -0.605384
  C      -3.060661      2.565935     -0.900208
  O      -2.140383      3.208163     -1.743230
  C      -3.893806      0.228079     -0.307461
  O      -4.803373      0.184298     -1.375095
  C      -3.410387     -1.183115      0.065934
  O      -4.475864     -2.008408      0.473199
  C      -2.418309     -1.085984      1.228357
  O      -1.872580     -2.328532      1.570666
  C       1.158571      1.065566     -0.384816
  O       0.480898      1.740491     -1.414635
  C       2.680247      1.263618     -0.523308
  O       3.037576      2.596264     -0.275205
  H       5.557136     -1.095088      1.259071
  H       5.594401      0.523967      2.017458
  H       6.694063      0.145640      0.659178
  H       3.315392      0.819440      1.496344
  H       1.456755     -0.653654      1.742014
  H       1.687820     -3.082318     -0.098596
  H       0.306472     -2.759317      0.993341
  H       2.975165     -3.123191      1.825566
  H       1.093208     -0.896632     -1.291730
  H      -0.630553      0.025351      1.710687
  H      -2.140557      0.701267     -1.473752
  H      -3.152942      3.093729      0.057512
  H      -4.020422      2.588952     -1.420499
  H      -1.245352      3.056100     -1.401305
  H      -4.450874      0.646222      0.538673
  H      -4.342005     -0.061862     -2.191146
  H      -2.888053     -1.635029     -0.792722
  H      -5.224803     -1.865142     -0.125903
  H      -2.939659     -0.643168      2.091918
  H      -2.604539     -2.957618      1.676416
  H       0.825521      1.550279      0.539831
  H       0.703545      1.340183     -2.269370
  H       3.004193      0.953269     -1.528701
  H       2.562073      3.173391     -0.893769
48
Coordinates from ORCA-job 3_opt_3c E -1337.091585506959
  C       5.672809      0.017946      1.210460
  O       4.799493      0.494528      0.177665
  C       3.450824      0.418876      0.488466
  O       3.056908     -0.943610      0.435239
  C       1.675885     -1.148566      0.717188
  C       1.458854     -2.655722      0.765320
  O       2.136795     -3.260116      1.855889
  C       0.834609     -0.473884     -0.383400
  O      -0.566212     -0.737851     -0.268297
  C      -1.260397     -0.149832      0.812185
  O      -1.772902      1.122475      0.483504
  C      -2.697288      1.122493     -0.616463
  C      -3.046826      2.580979     -0.893555
  O      -2.101362      3.219126     -1.738799
  C      -3.918901      0.260543     -0.271902
  O      -4.871504      0.214451     -1.320010
  C      -3.447636     -1.150027      0.098023
  O      -4.519970     -1.964037      0.548095
  C      -2.421774     -1.068743      1.227502
  O      -1.905626     -2.334206      1.587689
  C       1.167946      1.025314     -0.430915
  O       0.497283      1.711540     -1.476142
  C       2.683727      1.245929     -0.546395
  O       3.016365      2.602981     -0.326907
  H       5.533296     -1.055794      1.379744
  H       5.494838      0.564261      2.146311
  H       6.687694      0.208298      0.857652
  H       3.251045      0.823525      1.503819
  H       1.441062     -0.716820      1.706496
  H       1.786936     -3.084369     -0.195606
  H       0.393520     -2.848768      0.903184
  H       3.085242     -3.114994      1.745362
  H       1.113857     -0.933382     -1.343554
  H      -0.601567      0.011262      1.675724
  H      -2.201553      0.701252     -1.506143
  H      -3.130238      3.098136      0.076156
  H      -4.011541      2.631475     -1.407130
  H      -1.211984      3.019154     -1.410109
  H      -4.441462      0.696758      0.592114
  H      -4.435856     -0.064775     -2.138383
  H      -2.961880     -1.611332     -0.780267
  H      -5.271968     -1.827129     -0.044242
  H      -2.908469     -0.590367      2.094848
  H      -2.652524     -2.929654      1.736414
  H       0.824715      1.504667      0.495409
  H       0.736541      1.316229     -2.326723
  H       3.021353      0.908075     -1.543042
  H       2.537841      3.143705     -0.968995
48
Coordinates from ORCA-job 3_opt_3c E -1337.093456725362
  C       5.604267      0.050613      1.345046
  O       4.796378      0.527914      0.254126
  C       3.430586      0.434005      0.493208
  O       3.058315     -0.938782      0.399021
  C       1.670327     -1.166816      0.665972
  C       1.478111     -2.670319      0.689192
  O       2.182501     -3.281980      1.771064
  C       0.842251     -0.488587     -0.436903
  O      -0.562270     -0.754909     -0.305935
  C      -1.233732     -0.155983      0.785430
  O      -1.749621      1.123025      0.459710
  C      -2.705782      1.125172     -0.620760
  C      -3.032633      2.582400     -0.893009
  O      -2.050013      3.217268     -1.714621
  C      -3.920453      0.282227     -0.223659
  O      -4.915925      0.232247     -1.245145
  C      -3.452721     -1.125958      0.137583
  O      -4.520666     -1.929111      0.639789
  C      -2.389675     -1.057874      1.225219
  O      -1.873997     -2.338308      1.569245
  C       1.181591      1.005670     -0.478355
  O       0.521592      1.701703     -1.536322
  C       2.693410      1.231069     -0.577058
  O       3.010885      2.605294     -0.392417
  H       5.468195     -1.026817      1.500048
  H       5.356242      0.587149      2.271715
  H       6.642984      0.251294      1.072863
  H       3.175281      0.820778      1.501753
  H       1.418157     -0.751077      1.657773
  H       1.802449     -3.079345     -0.282466
  H       0.416229     -2.887756      0.830729
  H       3.124156     -3.108771      1.646201
  H       1.121839     -0.945389     -1.398251
  H      -0.556476      0.011061      1.632837
  H      -2.243083      0.691583     -1.523646
  H      -3.137163      3.095280      0.077596
  H      -3.984751      2.648835     -1.428731
  H      -1.175476      2.963402     -1.382232
  H      -4.408619      0.733571      0.653237
  H      -4.505331     -0.085111     -2.062358
  H      -3.014421     -1.595375     -0.762225
  H      -5.276863     -1.809371      0.049528
  H      -2.836669     -0.572603      2.110195
  H      -2.625033     -2.913514      1.763588
  H       0.831640      1.484360      0.446415
  H       0.774049      1.302653     -2.381177
  H       3.043218      0.866057     -1.560929
  H       2.526720      3.109126     -1.059399
48
Coordinates from ORCA-job 3_opt_3c E -1337.094042214807
  C       5.563219      0.074748      1.415351
  O       4.792080      0.551194      0.297532
  C       3.420021      0.441048      0.493717
  O       3.063432     -0.937312      0.374692
  C       1.673682     -1.179899      0.639533
  C       1.496549     -2.684062      0.645480
  O       2.227232     -3.299930      1.710187
  C       0.844085     -0.495950     -0.458806
  O      -0.563046     -0.757971     -0.318376
  C      -1.223928     -0.157663      0.777966
  O      -1.736095      1.125457      0.451296
  C      -2.704927      1.126833     -0.621883
  C      -3.020381      2.582810     -0.899019
  O      -2.007326      3.215724     -1.688587
  C      -3.919067      0.298612     -0.200268
  O      -4.930797      0.249395     -1.210532
  C      -3.459186     -1.110439      0.160224
  O      -4.528575     -1.898901      0.688727
  C      -2.379946     -1.050543      1.228077
  O      -1.869183     -2.338370      1.561517
  C       1.188160      0.995461     -0.495114
  O       0.526964      1.696479     -1.552536
  C       2.699336      1.220532     -0.595304
  O       3.009065      2.601741     -0.435650
  H       5.433022     -1.004510      1.557857
  H       5.274523      0.602142      2.334724
  H       6.609567      0.286944      1.186468
  H       3.130715      0.813101      1.497292
  H       1.419381     -0.775758      1.634284
  H       1.808862     -3.081547     -0.333995
  H       0.440884     -2.918941      0.801786
  H       3.162438     -3.104354      1.567424
  H       1.115109     -0.948999     -1.423459
  H      -0.539913      0.013424      1.617834
  H      -2.256289      0.681753     -1.526070
  H      -3.155528      3.097023      0.066307
  H      -3.954248      2.654824     -1.465047
  H      -1.146595      2.914989     -1.357287
  H      -4.393533      0.761653      0.677008
  H      -4.531269     -0.098778     -2.020906
  H      -3.048228     -1.589638     -0.746816
  H      -5.278102     -1.800800      0.085144
  H      -2.808421     -0.566436      2.122181
  H      -2.624791     -2.896562      1.788393
  H       0.840070      1.474569      0.429727
  H       0.776122      1.292099     -2.396287
  H       3.053966      0.841628     -1.571268
  H       2.510886      3.083179     -1.110035
48
Coordinates from ORCA-job 3_opt_3c E -1337.094400766807
  C       5.543720      0.079911      1.450681
  O       4.792729      0.559816      0.321946
  C       3.418557      0.443988      0.492750
  O       3.066107     -0.936929      0.361290
  C       1.675900     -1.181928      0.628580
  C       1.499896     -2.686933      0.626421
  O       2.247434     -3.306895      1.676641
  C       0.845754     -0.493105     -0.466669
  O      -0.562114     -0.752009     -0.322348
  C      -1.220493     -0.154522      0.774713
  O      -1.730885      1.130788      0.448064
  C      -2.705758      1.129127     -0.621415
  C      -3.018006      2.583623     -0.902398
  O      -1.985389      3.218389     -1.664195
  C      -3.919410      0.307855     -0.187789
  O      -4.937567      0.259968     -1.193158
  C      -3.462629     -1.102635      0.171004
  O      -4.531869     -1.882324      0.713666
  C      -2.373915     -1.047879      1.227871
  O      -1.861501     -2.338579      1.547753
  C       1.195685      0.996544     -0.500320
  O       0.532327      1.701300     -1.554368
  C       2.708704      1.216212     -0.606862
  O       3.017662      2.599633     -0.465001
  H       5.414375     -1.000222      1.582791
  H       5.235292      0.600860      2.366633
  H       6.592921      0.297355      1.242996
  H       3.110074      0.806910      1.493322
  H       1.424738     -0.781376      1.624566
  H       1.798543     -3.081523     -0.357611
  H       0.447770     -2.927584      0.797058
  H       3.177982     -3.097164      1.521221
  H       1.108709     -0.944767     -1.433486
  H      -0.535541      0.020257      1.612558
  H      -2.262630      0.676738     -1.524235
  H      -3.179434      3.098649      0.058055
  H      -3.937574      2.655683     -1.491456
  H      -1.134725      2.863001     -1.359126
  H      -4.389042      0.776209      0.688323
  H      -4.544513     -0.112360     -1.996236
  H      -3.067616     -1.586993     -0.739803
  H      -5.269421     -1.815587      0.090799
  H      -2.794013     -0.571866      2.129787
  H      -2.616445     -2.885146      1.805210
  H       0.853061      1.477856      0.425014
  H       0.768245      1.288795     -2.398362
  H       3.064939      0.829474     -1.578104
  H       2.499361      3.069388     -1.133286
48
Coordinates from ORCA-job 3_opt_3c E -1337.094659033634
  C       5.539732      0.079698      1.450938
  O       4.790426      0.562303      0.323607
  C       3.417504      0.445335      0.488301
  O       3.064041     -0.936878      0.355323
  C       1.675196     -1.180146      0.628029
  C       1.495842     -2.685942      0.623288
  O       2.251450     -3.308983      1.664353
  C       0.842035     -0.488105     -0.463161
  O      -0.564870     -0.744509     -0.316158
  C      -1.222010     -0.150639      0.781013
  O      -1.731254      1.135413      0.455848
  C      -2.700419      1.131515     -0.618147
  C      -3.009468      2.585120     -0.904127
  O      -1.948911      3.228136     -1.616655
  C      -3.917517      0.311995     -0.190314
  O      -4.927846      0.264923     -1.202984
  C      -3.463995     -1.099623      0.172964
  O      -4.535678     -1.873022      0.718082
  C      -2.374914     -1.047023      1.230540
  O      -1.860665     -2.337824      1.542702
  C       1.194678      1.001115     -0.498642
  O       0.528434      1.705870     -1.550035
  C       2.709617      1.215888     -0.614193
  O       3.020931      2.598872     -0.482856
  H       5.410947     -1.000893      1.577258
  H       5.228824      0.597149      2.367732
  H       6.588217      0.300112      1.244250
  H       3.103402      0.804841      1.488369
  H       1.429142     -0.779845      1.625009
  H       1.784913     -3.080552     -0.363235
  H       0.445156     -2.926092      0.802906
  H       3.179298     -3.088423      1.506373
  H       1.097414     -0.940141     -1.431538
  H      -0.539140      0.024298      1.620762
  H      -2.250862      0.675008     -1.515582
  H      -3.213031      3.096458      0.050200
  H      -3.905631      2.654195     -1.529096
  H      -1.112466      2.819663     -1.336419
  H      -4.393964      0.782231      0.680520
  H      -4.533047     -0.125349     -1.996785
  H      -3.071559     -1.588299     -0.736320
  H      -5.255451     -1.844621      0.071933
  H      -2.797063     -0.577954      2.134876
  H      -2.612255     -2.875321      1.828472
  H       0.858293      1.485958      0.426970
  H       0.744510      1.282115     -2.393961
  H       3.064497      0.825580     -1.583867
  H       2.477513      3.066391     -1.133061
48
Coordinates from ORCA-job 3_opt_3c E -1337.094828835335
  C       5.547229      0.075581      1.441062
  O       4.790717      0.558939      0.319308
  C       3.420020      0.443950      0.488242
  O       3.062953     -0.938297      0.359472
  C       1.674847     -1.177897      0.631463
  C       1.490690     -2.683749      0.627431
  O       2.243193     -3.308619      1.668190
  C       0.842225     -0.484943     -0.459495
  O      -0.563823     -0.740382     -0.315028
  C      -1.222708     -0.148161      0.780557
  O      -1.731541      1.138373      0.457384
  C      -2.698494      1.135288     -0.617605
  C      -3.008669      2.588738     -0.903143
  O      -1.939328      3.241126     -1.591167
  C      -3.917545      0.315618     -0.194277
  O      -4.923795      0.273597     -1.209689
  C      -3.466178     -1.097795      0.169442
  O      -4.537862     -1.868172      0.716867
  C      -2.375086     -1.048120      1.227121
  O      -1.857962     -2.338570      1.531589
  C       1.195266      1.004464     -0.492595
  O       0.527166      1.713197     -1.538758
  C       2.710909      1.216063     -0.613513
  O       3.026692      2.597291     -0.485257
  H       5.418604     -1.005083      1.566724
  H       5.242289      0.592713      2.360111
  H       6.593824      0.296796      1.226034
  H       3.107392      0.804897      1.488649
  H       1.428652     -0.776259      1.628126
  H       1.779030     -3.079296     -0.359081
  H       0.438854     -2.919418      0.806282
  H       3.170851     -3.080787      1.519553
  H       1.097590     -0.936169     -1.428469
  H      -0.542138      0.025268      1.622889
  H      -2.246953      0.678162     -1.513901
  H      -3.231267      3.095045      0.049851
  H      -3.897077      2.653285     -1.540314
  H      -1.111223      2.781722     -1.367901
  H      -4.395735      0.784257      0.676403
  H      -4.532568     -0.126479     -2.000248
  H      -3.074146     -1.587718     -0.739227
  H      -5.244048     -1.876885      0.055878
  H      -2.798955     -0.584775      2.133529
  H      -2.602094     -2.870422      1.845653
  H       0.863869      1.488071      0.435484
  H       0.721047      1.282153     -2.384340
  H       3.064135      0.823669     -1.582973
  H       2.461145      3.069737     -1.112832
48
Coordinates from ORCA-job 3_opt_3c E -1337.094919178405
  C       5.554939      0.077661      1.418714
  O       4.786617      0.556481      0.302462
  C       3.418022      0.443373      0.483246
  O       3.059355     -0.938715      0.363674
  C       1.672733     -1.177186      0.637063
  C       1.487408     -2.682844      0.635465
  O       2.238099     -3.307578      1.676975
  C       0.836373     -0.485077     -0.451677
  O      -0.568934     -0.739706     -0.305412
  C      -1.227416     -0.147325      0.791082
  O      -1.736986      1.138497      0.470939
  C      -2.690969      1.138415     -0.613455
  C      -2.999957      2.592336     -0.897921
  O      -1.908777      3.261063     -1.533309
  C      -3.914639      0.315161     -0.208661
  O      -4.906054      0.274898     -1.237212
  C      -3.466642     -1.098316      0.162987
  O      -4.541859     -1.867201      0.704516
  C      -2.382636     -1.048048      1.230265
  O      -1.865849     -2.337402      1.538024
  C       1.188360      1.004592     -0.491860
  O       0.520408      1.709070     -1.540786
  C       2.703289      1.214802     -0.616549
  O       3.023267      2.594734     -0.490829
  H       5.427764     -1.002639      1.550406
  H       5.259272      0.598544      2.338926
  H       6.599164      0.298540      1.191423
  H       3.112364      0.810277      1.484047
  H       1.427111     -0.774982      1.634175
  H       1.776042     -3.078098     -0.351532
  H       0.434709     -2.915196      0.813595
  H       3.165892     -3.075836      1.536320
  H       1.091017     -0.938528     -1.420154
  H      -0.549138      0.021236      1.636441
  H      -2.227886      0.684880     -1.506158
  H      -3.262513      3.087533      0.050928
  H      -3.865656      2.652522     -1.566765
  H      -1.090213      2.777490     -1.324433
  H      -4.403966      0.781557      0.657411
  H      -4.507780     -0.126647     -2.023280
  H      -3.065330     -1.590431     -0.740553
  H      -5.235920     -1.902179      0.032365
  H      -2.814661     -0.584054      2.132561
  H      -2.604908     -2.866663      1.866968
  H       0.858414      1.491829      0.435022
  H       0.700893      1.268018     -2.384064
  H       3.052918      0.818614     -1.586283
  H       2.444257      3.072531     -1.101624
48
Coordinates from ORCA-job 3_opt_3c E -1337.094950668520
  C       5.556625      0.078839      1.417834
  O       4.786891      0.554855      0.300576
  C       3.418049      0.442341      0.484415
  O       3.059756     -0.939332      0.367101
  C       1.672639     -1.178569      0.636856
  C       1.488530     -2.683961      0.634728
  O       2.236460     -3.308825      1.678478
  C       0.837351     -0.487151     -0.453130
  O      -0.568267     -0.741927     -0.307654
  C      -1.226543     -0.147685      0.789320
  O      -1.735929      1.138123      0.469443
  C      -2.690293      1.140139     -0.614498
  C      -3.001897      2.594115     -0.895945
  O      -1.912055      3.269399     -1.527616
  C      -3.913993      0.316416     -0.210371
  O      -4.905988      0.278138     -1.238234
  C      -3.467184     -1.097113      0.161886
  O      -4.542142     -1.864951      0.705741
  C      -2.382526     -1.047100      1.228830
  O      -1.866202     -2.336702      1.537610
  C       1.188454      1.002405     -0.492021
  O       0.520714      1.708320     -1.540620
  C       2.702228      1.213384     -0.615120
  O       3.023301      2.593156     -0.488417
  H       5.429940     -1.001203      1.553215
  H       5.261756      0.601974      2.337149
  H       6.600904      0.299004      1.189529
  H       3.114514      0.811922      1.484899
  H       1.423732     -0.777339      1.633842
  H       1.780299     -3.077618     -0.352237
  H       0.435215     -2.916071      0.809667
  H       3.164686     -3.076406      1.542546
  H       1.095323     -0.939924     -1.421307
  H      -0.547052      0.019201      1.633912
  H      -2.228792      0.688775     -1.509308
  H      -3.266448      3.085807      0.054240
  H      -3.868397      2.651330     -1.564213
  H      -1.094963      2.776265     -1.337721
  H      -4.401502      0.782241      0.657343
  H      -4.509219     -0.121618     -2.025855
  H      -3.065798     -1.590225     -0.741124
  H      -5.235414     -1.908813      0.033583
  H      -2.813695     -0.581257      2.130609
  H      -2.602064     -2.865111      1.874356
  H       0.857251      1.487601      0.435671
  H       0.698125      1.266428     -2.384007
  H       3.050897      0.815442     -1.584850
  H       2.442724      3.073287     -1.095650
48
Coordinates from ORCA-job 3_opt_3c E -1337.094958615266
  C       5.554903      0.080187      1.420192
  O       4.787042      0.554565      0.300667
  C       3.417412      0.442158      0.484372
  O       3.059795     -0.939250      0.367187
  C       1.672243     -1.179354      0.635589
  C       1.489221     -2.684751      0.632146
  O       2.236887     -3.310121      1.676076
  C       0.837316     -0.487814     -0.454665
  O      -0.568505     -0.742665     -0.308767
  C      -1.226140     -0.147583      0.789121
  O      -1.735214      1.138108      0.469036
  C      -2.689498      1.140522     -0.614919
  C      -3.002299      2.594259     -0.895096
  O      -1.910518      3.273088     -1.520574
  C      -3.913270      0.316801     -0.210757
  O      -4.905531      0.278368     -1.238462
  C      -3.467241     -1.096398      0.162718
  O      -4.542361     -1.862700      0.708592
  C      -2.382353     -1.045948      1.229145
  O      -1.866491     -2.335669      1.538952
  C       1.188534      1.001568     -0.493422
  O       0.521176      1.707662     -1.542801
  C       2.701777      1.212750     -0.615498
  O       3.023031      2.592644     -0.488786
  H       5.428162     -0.999657      1.557383
  H       5.258390      0.604598      2.338245
  H       6.599804      0.299722      1.193983
  H       3.114402      0.812725      1.484522
  H       1.422230     -0.779242      1.632741
  H       1.781841     -3.077131     -0.355093
  H       0.435952     -2.917649      0.806365
  H       3.165193     -3.078004      1.540293
  H       1.096207     -0.940399     -1.422717
  H      -0.545282      0.018668      1.632556
  H      -2.228538      0.690186     -1.510550
  H      -3.271457      3.084168      0.054660
  H      -3.866282      2.649944     -1.566749
  H      -1.095510      2.774909     -1.335968
  H      -4.400077      0.783200      0.657125
  H      -4.508328     -0.120273     -2.026416
  H      -3.066622     -1.591044     -0.739745
  H      -5.234835     -1.911250      0.035958
  H      -2.812496     -0.578834      2.130741
  H      -2.601113     -2.863040      1.879867
  H       0.855914      1.486278      0.434071
  H       0.699177      1.265021     -2.385667
  H       3.049835      0.813903     -1.585172
  H       2.443514      3.072772     -1.096999
48
Coordinates from ORCA-job 3_opt_3c E -1337.094961888022
  C       5.554335      0.080431      1.420274
  O       4.787451      0.553817      0.299718
  C       3.417273      0.441836      0.483882
  O       3.059643     -0.939215      0.367066
  C       1.671860     -1.179384      0.635605
  C       1.489006     -2.684860      0.631516
  O       2.236697     -3.310582      1.675274
  C       0.836956     -0.487659     -0.454622
  O      -0.568884     -0.742438     -0.308540
  C      -1.226492     -0.147128      0.789852
  O      -1.735245      1.138411      0.469403
  C      -2.688891      1.140722     -0.615019
  C      -3.003043      2.594246     -0.894702
  O      -1.909651      3.276040     -1.514853
  C      -3.912731      0.316579     -0.211527
  O      -4.904405      0.277646     -1.239798
  C      -3.467026     -1.096427      0.162984
  O      -4.542524     -1.861889      0.709305
  C      -2.382587     -1.045381      1.229656
  O      -1.866605     -2.334897      1.540093
  C       1.188478      1.001603     -0.493356
  O       0.520767      1.707671     -1.542898
  C       2.701568      1.212601     -0.615749
  O       3.023089      2.592414     -0.488956
  H       5.427221     -0.999214      1.558688
  H       5.257392      0.605883      2.337562
  H       6.599571      0.299160      1.194858
  H       3.115408      0.813152      1.484012
  H       1.422149     -0.779667      1.632901
  H       1.781649     -3.076883     -0.355791
  H       0.435832     -2.918105      0.805823
  H       3.165185     -3.079914      1.538182
  H       1.095874     -0.940230     -1.422643
  H      -0.544953      0.018867      1.632679
  H      -2.227430      0.691140     -1.510737
  H      -3.276597      3.083112      0.054226
  H      -3.864462      2.648561     -1.569782
  H      -1.096028      2.774457     -1.333645
  H      -4.399905      0.783376      0.655919
  H      -4.505741     -0.119394     -2.027840
  H      -3.066396     -1.592060     -0.738859
  H      -5.233639     -1.913611      0.035522
  H      -2.812626     -0.577947      2.131119
  H      -2.600647     -2.861723      1.883093
  H       0.855343      1.486177      0.433999
  H       0.699463      1.264689     -2.385470
  H       3.048758      0.813697     -1.585695
  H       2.445539      3.072320     -1.099243
48
Coordinates from ORCA-job 3_opt_3c E -1337.094963587297
  C       5.554319      0.080318      1.419452
  O       4.787570      0.553287      0.298797
  C       3.417126      0.441582      0.483423
  O       3.059359     -0.939161      0.366883
  C       1.671521     -1.179145      0.636079
  C       1.488522     -2.684667      0.631909
  O       2.236189     -3.310467      1.675621
  C       0.836515     -0.487341     -0.454019
  O      -0.569215     -0.742014     -0.307936
  C      -1.226958     -0.146698      0.790646
  O      -1.735493      1.138720      0.469990
  C      -2.688532      1.140827     -0.614832
  C      -3.003564      2.594180     -0.894455
  O      -1.908864      3.277871     -1.510625
  C      -3.912441      0.316309     -0.212033
  O      -4.903536      0.277040     -1.240841
  C      -3.466799     -1.096660      0.162960
  O      -4.542662     -1.861856      0.708910
  C      -2.382846     -1.045287      1.230065
  O      -1.866519     -2.334572      1.540676
  C       1.188207      1.001916     -0.492919
  O       0.520124      1.707668     -1.542592
  C       2.701358      1.212796     -0.615809
  O       3.022981      2.592473     -0.488618
  H       5.426934     -0.999220      1.558446
  H       5.257689      0.606336      2.336507
  H       6.599639      0.298511      1.193911
  H       3.116188      0.813295      1.483663
  H       1.422561     -0.779364      1.633452
  H       1.781098     -3.076830     -0.355301
  H       0.435389     -2.917994      0.806346
  H       3.164935     -3.081767      1.536935
  H       1.095129     -0.940083     -1.422020
  H      -0.545176      0.019220      1.633276
  H      -2.226350      0.691616     -1.510334
  H      -3.280409      3.082573      0.053673
  H      -3.862956      2.647628     -1.572221
  H      -1.096241      2.773569     -1.332429
  H      -4.400119      0.783261      0.654995
  H      -4.503559     -0.118289     -2.029094
  H      -3.065865     -1.592651     -0.738487
  H      -5.232395     -1.915533      0.033874
  H      -2.813183     -0.578071      2.131500
  H      -2.600364     -2.861193      1.884441
  H       0.854935      1.486680      0.434251
  H       0.699671      1.264666     -2.384997
  H       3.048059      0.814385     -1.586085
  H       2.448026      3.072136     -1.101550
48
Coordinates from ORCA-job 3_opt_3c E -1337.094964686058
  C       5.554653      0.080170      1.418079
  O       4.787417      0.553113      0.297912
  C       3.416942      0.441489      0.483043
  O       3.059062     -0.939045      0.366691
  C       1.671285     -1.178887      0.636712
  C       1.488105     -2.684404      0.632828
  O       2.235639     -3.310075      1.676695
  C       0.836051     -0.487130     -0.453192
  O      -0.569551     -0.741691     -0.307137
  C      -1.227425     -0.146437      0.791449
  O      -1.735868      1.138914      0.470765
  C      -2.688296      1.140947     -0.614485
  C      -3.003745      2.594170     -0.894193
  O      -1.907769      3.279221     -1.506802
  C      -3.912296      0.316122     -0.212466
  O      -4.902813      0.276642     -1.241812
  C      -3.466628     -1.096881      0.162734
  O      -4.542850     -1.862137      0.707911
  C      -2.383217     -1.045406      1.230424
  O      -1.866607     -2.334529      1.541098
  C       1.187739      1.002177     -0.492414
  O       0.519268      1.707419     -1.542217
  C       2.700987      1.213171     -0.615735
  O       3.022500      2.592755     -0.487899
  H       5.427132     -0.999330      1.557274
  H       5.258802      0.606401      2.335268
  H       6.599882      0.298062      1.191825
  H       3.116649      0.813343      1.483452
  H       1.423112     -0.778830      1.634141
  H       1.780720     -3.076901     -0.354203
  H       0.434959     -2.917673      0.807245
  H       3.164704     -3.083604      1.536521
  H       1.094339     -0.940093     -1.421176
  H      -0.545718      0.019435      1.634170
  H      -2.225324      0.691911     -1.509654
  H      -3.283367      3.082212      0.053240
  H      -3.861392      2.647149     -1.574246
  H      -1.096005      2.772238     -1.332026
  H      -4.400562      0.783054      0.654213
  H      -4.501765     -0.117024     -2.030349
  H      -3.065182     -1.592852     -0.738462
  H      -5.231240     -1.917187      0.031621
  H      -2.814114     -0.578524      2.131766
  H      -2.600470     -2.861090      1.884943
  H       0.854596      1.487283      0.434585
  H       0.699607      1.264638     -2.384573
  H       3.047514      0.815481     -1.586324
  H       2.450536      3.072217     -1.103757
48
Coordinates from ORCA-job 3_opt_3c E -1337.094965329789
  C       5.554945      0.080064      1.417036
  O       4.787124      0.553361      0.297496
  C       3.416774      0.441619      0.482916
  O       3.058894     -0.938863      0.366504
  C       1.671234     -1.178739      0.637101
  C       1.488001     -2.684220      0.633618
  O       2.235273     -3.309651      1.677818
  C       0.835793     -0.487117     -0.452666
  O      -0.569755     -0.741641     -0.306590
  C      -1.227646     -0.146423      0.791902
  O      -1.736154      1.138922      0.471323
  C      -2.688243      1.141008     -0.614185
  C      -3.003637      2.594183     -0.894043
  O      -1.906841      3.279799     -1.504556
  C      -3.912291      0.316075     -0.212582
  O      -4.902584      0.276523     -1.242150
  C      -3.466567     -1.096974      0.162573
  O      -4.542986     -1.862430      0.707141
  C      -2.383473     -1.045576      1.230644
  O      -1.866781     -2.334677      1.541308
  C       1.187302      1.002247     -0.492221
  O       0.518647      1.706924     -1.542240
  C       2.700594      1.213629     -0.615520
  O       3.021736      2.593219     -0.486862
  H       5.427386     -0.999460      1.556042
  H       5.259787      0.606133      2.334556
  H       6.600043      0.297904      1.190114
  H       3.116638      0.813313      1.483473
  H       1.423482     -0.778419      1.634545
  H       1.780835     -3.077021     -0.353226
  H       0.434800     -2.917409      0.807807
  H       3.164628     -3.085023      1.536705
  H       1.093945     -0.940229     -1.420629
  H      -0.546137      0.019447      1.634814
  H      -2.224834      0.691927     -1.509121
  H      -3.284746      3.082056      0.053026
  H      -3.860363      2.647085     -1.575309
  H      -1.095646      2.770896     -1.332556
  H      -4.400862      0.782909      0.653975
  H      -4.501075     -0.116006     -2.031020
  H      -3.064770     -1.592720     -0.738588
  H      -5.230721     -1.917811      0.030217
  H      -2.814793     -0.578910      2.131896
  H      -2.600827     -2.861357      1.884592
  H       0.854252      1.487669      0.434629
  H       0.699775      1.264528     -2.384625
  H       3.047334      0.816665     -1.586307
  H       2.452507      3.072571     -1.105295
48
Coordinates from ORCA-job 3_opt_3c E -1337.094965672889
  C       5.555064      0.080015      1.416481
  O       4.786824      0.553831      0.297431
  C       3.416642      0.441888      0.482971
  O       3.058835     -0.938658      0.366311
  C       1.671301     -1.178699      0.637197
  C       1.488125     -2.684146      0.634011
  O       2.235114     -3.309372      1.678547
  C       0.835705     -0.487215     -0.452486
  O      -0.569862     -0.741768     -0.306308
  C      -1.227648     -0.146560      0.792089
  O      -1.736301      1.138825      0.471647
  C      -2.688232      1.141002     -0.614018
  C      -3.003368      2.594170     -0.894038
  O      -1.906091      3.279930     -1.503408
  C      -3.912305      0.316109     -0.212535
  O      -4.902599      0.276514     -1.242118
  C      -3.466554     -1.096954      0.162562
  O      -4.543041     -1.862548      0.706866
  C      -2.383596     -1.045659      1.230800
  O      -1.867025     -2.334827      1.541507
  C       1.186963      1.002182     -0.492271
  O       0.518271      1.706395     -1.542511
  C       2.700230      1.214068     -0.615239
  O       3.020898      2.593733     -0.485771
  H       5.427494     -0.999555      1.555107
  H       5.260303      0.605733      2.334338
  H       6.600065      0.297933      1.189184
  H       3.116367      0.813247      1.483639
  H       1.423616     -0.778256      1.634637
  H       1.781225     -3.077110     -0.352703
  H       0.434862     -2.917285      0.807920
  H       3.164690     -3.086003      1.536980
  H       1.093867     -0.940358     -1.420439
  H      -0.546309      0.019334      1.635149
  H      -2.224689      0.691764     -1.508827
  H      -3.285215      3.081937      0.052885
  H      -3.859693      2.647121     -1.575847
  H      -1.095268      2.769731     -1.333404
  H      -4.400969      0.782878      0.654022
  H      -4.501048     -0.115501     -2.031214
  H      -3.064620     -1.592516     -0.738649
  H      -5.230738     -1.917591      0.029874
  H      -2.815113     -0.578996      2.131952
  H      -2.601332     -2.861690      1.883949
  H       0.853891      1.487783      0.434478
  H       0.700069      1.264400     -2.384956
  H       3.047349      0.817689     -1.586126
  H       2.453840      3.073052     -1.106184
