48
Coordinates from ORCA-job 3_opt_3c E -1337.094965672889
  C           5.55506352406523      0.08001539189088      1.41648149959944
  O           4.78682434068513      0.55383087424027      0.29743130142107
  C           3.41664224124541      0.44188798012046      0.48297068701131
  O           3.05883463817769     -0.93865798692675      0.36631108434457
  C           1.67130105541044     -1.17869901013134      0.63719693059835
  C           1.48812527818726     -2.68414586439265      0.63401060524904
  O           2.23511448415480     -3.30937162596828      1.67854652813921
  C           0.83570511544890     -0.48721506227120     -0.45248568919415
  O          -0.56986181761663     -0.74176800483095     -0.30630841571590
  C          -1.22764848481491     -0.14656044661762      0.79208923688501
  O          -1.73630076096328      1.13882504064020      0.47164736998531
  C          -2.68823161477489      1.14100173242382     -0.61401782787740
  C          -3.00336757319994      2.59417008686751     -0.89403774565644
  O          -1.90609083545467      3.27993048956918     -1.50340758247037
  C          -3.91230522707069      0.31610912470379     -0.21253469228045
  O          -4.90259929922599      0.27651438365316     -1.24211814842178
  C          -3.46655389249165     -1.09695405380792      0.16256197349677
  O          -4.54304099431330     -1.86254767374291      0.70686584583177
  C          -2.38359609033918     -1.04565878495235      1.23079999280509
  O          -1.86702490957962     -2.33482739122092      1.54150735686666
  C           1.18696283271412      1.00218172139308     -0.49227106588018
  O           0.51827106005474      1.70639522390414     -1.54251081671026
  C           2.70022978956512      1.21406794024723     -0.61523916795747
  O           3.02089848268918      2.59373289782887     -0.48577127255847
  H           5.42749390451053     -0.99955458187814      1.55510662609270
  H           5.26030288620921      0.60573319366550      2.33433765766333
  H           6.60006505035356      0.29793250846413      1.18918449635550
  H           3.11636697220368      0.81324731207230      1.48363871313783
  H           1.42361609973575     -0.77825583893448      1.63463727908290
  H           1.78122521459993     -3.07710984487115     -0.35270319390864
  H           0.43486232849659     -2.91728542425069      0.80791964299756
  H           3.16469015829430     -3.08600273842736      1.53698008241052
  H           1.09386719009298     -0.94035788022289     -1.42043905608737
  H          -0.54630879369512      0.01933409149632      1.63514925018474
  H          -2.22468871794647      0.69176446962152     -1.50882698278007
  H          -3.28521486007499      3.08193723150574      0.05288497649298
  H          -3.85969316101924      2.64712118330296     -1.57584746846368
  H          -1.09526833687307      2.76973067381916     -1.33340403803125
  H          -4.40096859126957      0.78287806346265      0.65402201406665
  H          -4.50104817723455     -0.11550082802388     -2.03121445201643
  H          -3.06461962836721     -1.59251613834195     -0.73864897949044
  H          -5.23073757676552     -1.91759053683573      0.02987398432690
  H          -2.81511290201822     -0.57899585906181      2.13195186589163
  H          -2.60133161225395     -2.86168966855114      1.88394936819244
  H           0.85389080993177      1.48778337741376      0.43447839769973
  H           0.70006885717843      1.26439951151542     -2.38495624836185
  H           3.04734926128426      0.81768866498672     -1.58612622545706
  H           2.45384028207361      3.07305207545335     -1.10618369750938
