48
cell 100,-30 xtb/ALPB scan2 frame
C 5.437633 1.011449 1.020337
O 4.790347 0.385308 -0.085213
C 3.413727 0.467052 -0.063274
O 2.933330 -0.484050 0.862688
C 1.529513 -0.490285 1.066185
C 1.324182 -1.490436 2.232704
O 2.372246 -1.442489 3.160367
C 0.849386 -0.872168 -0.264380
O -0.571020 -0.748952 -0.374381
C -1.442185 -0.920615 0.707630
O -1.837187 0.307004 1.255048
C -2.498830 1.174672 0.333623
C -2.878466 2.446588 1.102616
O -1.763856 3.226327 1.447289
C -3.749767 0.512420 -0.266871
O -4.376568 1.328200 -1.221736
C -3.392781 -0.858418 -0.861678
O -4.540792 -1.563100 -1.268803
C -2.674561 -1.695589 0.199381
O -2.239140 -2.931997 -0.290127
C 1.352558 0.032284 -1.405846
O 0.937123 -0.454850 -2.655700
C 2.879566 0.155305 -1.462267
O 3.262625 1.197801 -2.314632
H 5.084409 0.593612 1.964423
H 5.255491 2.089532 1.001634
H 6.495670 0.806626 0.887979
H 3.075525 1.480718 0.233585
H 1.203591 0.518011 1.365716
H 1.220676 -2.503646 1.822126
H 0.435308 -1.229736 2.807662
H 3.203299 -1.621105 2.696157
H 1.118854 -1.915449 -0.491275
H -0.990168 -1.489887 1.517214
H -1.797851 1.431812 -0.474183
H -3.446460 2.155159 1.992987
H -3.506119 3.069959 0.463461
H -1.239646 2.745245 2.101670
H -4.493137 0.364186 0.524902
H -3.747881 1.565829 -1.920325
H -2.711325 -0.721883 -1.715678
H -5.137164 -0.952138 -1.728409
H -3.357907 -1.835307 1.051768
H -2.984004 -3.354348 -0.747327
H 0.938540 1.041640 -1.238523
H 0.011162 -0.727278 -2.592020
H 3.312121 -0.801350 -1.785376
H 2.939927 0.998333 -3.207644
