48
 energy: -84.858634790820 gnorm: 0.000174682559 xtb: 6.7.1 (edcfbbe)
C            5.72697135931360       -0.87769690557940        0.15479320250981
O            4.91518848113061        0.19793739897601        0.61684797948508
C            3.58715565688120       -0.12035462449163        0.81313185439434
O            2.97500070977090       -0.29567889363590       -0.44977283513520
C            1.58848520252943       -0.57610150629322       -0.40379823417459
C            1.13116843322173       -0.77556792243219       -1.85620137140681
O            1.45711080627166       -2.04289370317113       -2.35576996209650
C            0.82454226738219        0.56633280583988        0.28163837750455
O           -0.53382427134091        0.18539028027316        0.44782001504208
C           -1.51356439519259        1.16627569296819        0.21957839638144
O           -2.09663685679572        1.03469317219406       -1.04379324598065
C           -2.78495621879143       -0.20261110283641       -1.24601949081518
C           -3.40504239104521       -0.13678416636669       -2.64723640715533
O           -2.43601170926643       -0.08409308447608       -3.65975230003261
C           -3.86171821915234       -0.43754607847343       -0.17533076897108
O           -4.49677829057898       -1.68014162605532       -0.32432483810637
C           -3.25122738866573       -0.29851977498732        1.22851696278639
O           -4.23483719383826       -0.37687422000063        2.23177850959178
C           -2.56482910956223        1.06366510968987        1.33490439650031
O           -1.91218874974787        1.24539383548585        2.56270428673048
C            1.42300688322868        0.83146155479835        1.67527277117477
O            0.88385200728043        1.98549022572228        2.27255432710013
C            2.94144702969109        1.02777922099254        1.59813169969178
O            3.50685670602324        1.03295735226804        2.87991765684287
H            5.42493141376046       -1.18321581597110       -0.84781074766521
H            5.65843692420009       -1.72704722937715        0.83996920005045
H            6.73993736253090       -0.48653318775894        0.14080625979738
H            3.48401029792532       -1.05546017388586        1.40312318820110
H            1.41011732984261       -1.50108618289676        0.16669037274950
H            1.57843801941051        0.01897869781405       -2.46414744715964
H            0.04471555184488       -0.70067883174208       -1.90702100756146
H            2.41950649854029       -2.12439904259066       -2.40750929918979
H            0.90187478865840        1.47388065808453       -0.32853710615036
H           -1.07039918140664        2.16969309923345        0.22488083552823
H           -2.05439609569788       -1.02436284098010       -1.20422456553461
H           -4.06690241908675        0.73609418773390       -2.69222261508359
H           -3.99005187335360       -1.04108212866624       -2.82185870586337
H           -1.93990218486424        0.74087636637707       -3.56555048210056
H           -4.65500819416242        0.31096335651819       -0.28602939650386
H           -3.83747421315468       -2.39065132389426       -0.32573962889428
H           -2.49003568758651       -1.08102838591418        1.37984858826002
H           -4.86055589439047       -1.07956032413207        1.99794631808236
H           -3.31624093627827        1.85209381112930        1.17891548041344
H           -2.53487651715903        1.01698017366862        3.27165399011857
H            1.21876150647602       -0.05120086679812        2.30001580456255
H           -0.04786039971729        1.82133570900584        2.50787997421439
H            3.16140796237957        1.96533305993494        1.06804557631452
H            3.08154920128427        1.73785417514074        3.39441648185381
