48
 energy: -84.860382525887 gnorm: 0.000705776501 xtb: 6.7.1 (edcfbbe)
C            5.70913661973112       -0.84659836935067        0.12774048448360
O            4.91625780945965        0.25686971696177        0.55822733688326
C            3.58959390733656       -0.04722063354014        0.78476214198296
O            2.96159390166697       -0.23823186933014       -0.46702049308095
C            1.57858720830332       -0.52660124496903       -0.40193844844602
C            1.11448860157834       -0.71090801527208       -1.85555646227425
O            1.26196378523077        0.46074195068937       -2.60948535694737
C            0.81823141903087        0.61528323032024        0.28832210081481
O           -0.53583799782258        0.22593947608875        0.47733964866619
C           -1.51361979423173        1.20912057991712        0.25186667663999
O           -2.10568644382419        1.06311903971372       -1.00593991410958
C           -2.78032916532262       -0.18342594191039       -1.17846133565092
C           -3.33089114794965       -0.20117788036799       -2.60821761805236
O           -2.32082334383437       -0.38172644822925       -3.56591173941069
C           -3.89029526351330       -0.35712328098073       -0.13030711770653
O           -4.56830620906021       -1.57871090105651       -0.26083311826070
C           -3.29148681844196       -0.21076328991898        1.27857011577243
O           -4.28726734131311       -0.24136907133251        2.27283574234966
C           -2.56107634975353        1.12977268409128        1.37373952511996
O           -1.89566941883945        1.29554622445890        2.59743133790605
C            1.43831440644439        0.90242732281345        1.66722104017078
O            0.89769343522945        2.05672948782202        2.26391844392149
C            2.95350484302230        1.11293704545294        1.55933891414320
O            3.54297970811238        1.14766781852219        2.82982049705203
H            5.33644187483807       -1.24182114914620       -0.81873537204137
H            5.70452247695155       -1.63371154772479        0.88699622948405
H            6.71197929196982       -0.44895693551793        0.00443830409625
H            3.48975445471749       -0.97252347243127        1.38971840616725
H            1.40947107158665       -1.45423624878582        0.16507091357915
H            1.68280436877629       -1.53649177956149       -2.29962387074173
H            0.05270815717365       -0.95735417023572       -1.87046030177101
H            2.20168586003465        0.69227010926320       -2.63321252165016
H            0.87616258279493        1.51190665774754       -0.33938065864077
H           -1.06638461336452        2.21031302426294        0.24207865323289
H           -2.05159670501540       -0.99978193385260       -1.06004465445358
H           -3.87702773132821        0.73343568380630       -2.77988402731724
H           -4.01394979690832       -1.04529295768089       -2.71910486134738
H           -1.70608029592038        0.36441612165372       -3.51933763216117
H           -4.65093754332351        0.41878828370580       -0.27326033812319
H           -3.93417294041153       -2.31140293858550       -0.24181172707893
H           -2.55817814464747       -1.01546055760835        1.45204120323244
H           -4.93955943247945       -0.91838774935202        2.03677283842612
H           -3.29107442757549        1.93849197420777        1.22046091685551
H           -2.52528385320458        1.10711512384662        3.31210584626457
H            1.25536495367241        0.02451969395760        2.30550035311380
H           -0.02883746944056        1.88566555836239        2.51299652743206
H            3.15497320279089        2.04248738582937        1.00844368423917
H            3.11817832778309        1.85661742131474        3.33902753496597
