48
 energy: -84.850025499315 gnorm: 0.000397388457 xtb: 6.7.1 (edcfbbe)
C            5.60175074838820       -0.61369345520986       -0.20328068435280
O            4.80761269160247        0.37275263253502        0.45226060915908
C            3.50070369426474       -0.00657464944647        0.69550863905075
O            2.82022881215253       -0.14602551679994       -0.53475230467099
C            1.47064744921657       -0.52865443653103       -0.37282730425376
C            0.89300508144153       -0.80072629390287       -1.76902223436771
O           -0.05330801485134       -1.84166685572742       -1.69254721898360
C            0.71624930364869        0.56508334375566        0.39508174469483
O           -0.62965361233082        0.15871842719521        0.57603711504168
C           -1.61574182056844        1.15572069158059        0.43126088045425
O           -2.22944524821828        1.12500525967353       -0.81841664615924
C           -2.91990202531424       -0.08798778405275       -1.12065596981606
C           -3.53262646135282        0.10782028353580       -2.51366350094760
O           -4.36741540728186        1.23552012799587       -2.57246072815364
C           -4.01446744866715       -0.39026462860629       -0.08027865826140
O           -4.64971277477140       -1.60658590506746       -0.36501710196340
C           -3.40774685696233       -0.37118908406397        1.32995135834322
O           -4.44112251112815       -0.52906307263677        2.27009459319980
C           -2.63055905114297        0.92966408058838        1.57210257621369
O           -1.96405714394600        0.88945630627838        2.81118286969868
C            1.37102470892072        0.84961471547646        1.76124903348755
O            0.82646757620502        2.00805628372113        2.34620938062661
C            2.87598630839319        1.08098943241907        1.58991679911427
O            3.46493051230348        1.05029085009495        2.86129324580675
H            5.19426237149635       -0.83821452205369       -1.18954005052601
H            5.64259823842147       -1.52593491912305        0.39823567351256
H            6.59059706815520       -0.17402238678830       -0.29221455439259
H            3.46329833717905       -0.97745561873198        1.23615064407134
H            1.41062797791202       -1.46505895508581        0.20552620501644
H            0.42327390653694        0.10940630168034       -2.16298560493177
H            1.73883016297856       -1.06842891856262       -2.40740048507774
H           -0.05698400746942       -2.33604200755104       -2.52441958255791
H            0.75710600470063        1.48798890555413       -0.19860535491287
H           -1.17472119236068        2.15645382416416        0.51140336246248
H           -2.19856044170509       -0.91648593112054       -1.14180978702597
H           -2.72483980218831        0.19279606300698       -3.25007427540700
H           -4.15929892442015       -0.75327520868222       -2.74919231132541
H           -3.84800503990575        2.00590254735856       -2.30017719794080
H           -4.80076639832905        0.36946447180630       -0.14431602147368
H           -4.03958465757875       -2.34133593593180       -0.20171688174823
H           -2.69295010474387       -1.21119123528038        1.40607443268370
H           -4.10622570237664       -0.30179737984518        3.15130904761383
H           -3.32383085282248        1.77354380009599        1.61819073764252
H           -1.41274657437955        0.09024467827910        2.82418454432695
H            1.23888910380460       -0.02030037715698        2.41849346719493
H           -0.04346478990437        1.81426170059163        2.73727344859756
H            3.02585389964685        2.05479181495873        1.10481848934911
H            4.39519593058675        1.31113351971070        2.78750572757872
