48
 energy: -84.854880187445 gnorm: 0.000814772648 xtb: 6.7.1 (edcfbbe)
C            5.58162357160143       -0.77788963665674       -0.12988957327660
O            4.82884075641185        0.23120609454401        0.54019967663361
C            3.50278947893449       -0.08576771874034        0.74913469220604
O            2.84041560316147       -0.15567321888156       -0.50063470118747
C            1.47171508143077       -0.49595427876165       -0.40519030465964
C            0.93476485911113       -0.66901432847823       -1.83312298987030
O            0.06571175851805       -1.77594666210591       -1.86555193174828
C            0.72367409120466        0.57754051419622        0.39968301864969
O           -0.62808764536138        0.19435230421972        0.56131008970777
C           -1.59442604867164        1.20777793831084        0.44702766183541
O           -2.19814032200468        1.20701071403369       -0.81345604852473
C           -2.88126094255689       -0.00556748188617       -1.13761729544860
C           -3.51381599505309        0.21068024765098       -2.51732121617208
O           -4.39307566745762        1.30541815198684       -2.53650622850252
C           -3.94965061881489       -0.34822004344869       -0.09205794737046
O           -4.46762900579081       -1.61331629598930       -0.41402452182029
C           -3.33537939504908       -0.34056293222801        1.31238730794476
O           -4.36920774294880       -0.56711801912618        2.24082425526213
C           -2.63291467745709        1.00058117085299        1.55857571125006
O           -2.05617530777565        1.00467851005578        2.84090014018952
C            1.37389422882723        0.73452357699530        1.78044597601408
O            0.72883389702916        1.78281066300623        2.46694489402118
C            2.87826916402622        1.00643981791161        1.63303960119764
O            3.48721574343802        1.12247867857576        2.88793313051378
H            5.18346649534543       -0.95045709358277       -1.13044443346372
H            5.56082324724681       -1.70949620127212        0.44277940409687
H            6.59445539167544       -0.39097105899002       -0.18517466266491
H            3.40487517724033       -1.07473134368961        1.25194031979771
H            1.35407266782384       -1.46065467717897        0.11323535343520
H            0.40596086252906        0.23964371361002       -2.14892149232735
H            1.80478589223230       -0.81851089948296       -2.47914770160505
H            0.03612060422755       -2.13859002895327       -2.76161902213466
H            0.79174900975471        1.53235250020334       -0.13694358526599
H           -1.13414241011579        2.20007247845769        0.54538508726176
H           -2.16394304438841       -0.83513208936934       -1.18201971282970
H           -2.71533981707090        0.34946081688516       -3.25540845636828
H           -4.10275711275596       -0.67133980387173       -2.77062103155518
H           -3.89903863654977        2.09160210562038       -2.26185025514552
H           -4.74679596851087        0.41132231233747       -0.12817780267490
H           -5.07162215606628       -1.87820750073444        0.29673256208098
H           -2.58135123382706       -1.14044150305581        1.37523982319484
H           -4.02049948517907       -0.40138906276969        3.12925254988695
H           -3.37798372075393        1.80882965675457        1.49595366530053
H           -1.12690006327279        1.29284663961084        2.78859117498166
H            1.22607004165203       -0.20761064599173        2.33374270815748
H            1.31469331938592        2.08480788565748        3.18154180932583
H            3.03365977520148        1.96929748301625        1.13515342372099
H            3.59101631075723        0.25270746903121        3.30237208614023
