48
 energy: -84.741758019280 gnorm: 0.000805668867 xtb: 6.7.1 (edcfbbe)
C            5.69192964265017       -0.95417506784268        0.09885398880258
O            4.94832496652303        0.10347451811698        0.70051113823673
C            3.58908854963614       -0.13566353024221        0.80557555101498
O            3.03621551006357       -0.24073791991538       -0.48406213274712
C            1.64607710025299       -0.47727988944786       -0.49429738676135
C            1.21306817203497       -0.53099882981346       -1.96362183489923
O            1.47448377086111        0.71571809305731       -2.56058012953779
C            0.87489146610134        0.62219829825821        0.25021907964711
O           -0.47183851704742        0.19319061130735        0.41097492873377
C           -1.47145302933416        1.16455629358396        0.22752302610980
O           -2.05990167614643        1.07484440190780       -1.03388332077672
C           -2.71283639996367       -0.17181241650972       -1.29136233936041
C           -3.17427429205906       -0.08750774972113       -2.74531326429543
O           -3.99450710242707       -1.37552162127005       -3.03819180248671
C           -3.82631285336145       -0.39379886952089       -0.22867340159667
O           -4.41053721455728       -1.66276330901514       -0.44825911441399
C           -3.24095114088707       -0.31302336171416        1.18325712862354
O           -4.22842860652143       -0.50358460902287        2.17393010286940
C           -2.51443294700401        1.01940600525703        1.35031370788983
O           -1.85703128300267        1.12745406693200        2.58643491455151
C            1.46078081408960        0.87887537946462        1.65480025667570
O            0.91651256362223        2.04542649989168        2.22179104053281
C            2.98084572900274        1.03383104371344        1.59747753812955
O            3.47421714027901        1.03830038557250        2.90980278151706
H            5.35856707167643       -1.11744596555346       -0.92636144601669
H            5.57560955953343       -1.87395389181869        0.67914930903655
H            6.72582967762398       -0.62269541884266        0.11515324498380
H            3.39726830524288       -1.08227793099256        1.35962463307653
H            1.42583286521714       -1.44075884207203       -0.00681906950339
H            1.78324699008906       -1.32523935899064       -2.45968700632415
H            0.14195711267314       -0.75754886348735       -1.99473708231827
H            1.17222793644995        0.69147274976225       -3.48010418630016
H            0.92477632438251        1.54446143432382       -0.33857365627870
H           -1.03957724270412        2.17271984861799        0.26655350463503
H           -1.98356259230652       -0.98952468120258       -1.15670178384514
H           -3.96113584277068        0.69506573673961       -2.77676979000040
H           -4.38294485198378       -1.73352291532132       -2.19848067835192
H           -3.36658142540185       -2.02327861353584       -3.41376235972928
H           -4.58757964972434        0.39715784341226       -0.34824859058436
H           -4.92546856982157       -1.91981616898189        0.33226459360170
H           -2.52055262467405       -1.12700911741199        1.32173440638355
H           -4.88286752817288        0.21072675768872        2.12876274521994
H           -3.23689897242391        1.84543259704780        1.23379796850220
H           -2.39899542000285        0.69246003209496        3.26607511907600
H            1.23346714401728        0.00818382203314        2.28671393085063
H            0.00980018603570        1.85732484530650        2.52143149563849
H            3.22283549319956        1.96978120470015        1.07646907065977
H            4.43042069454035        1.19651746699663        2.88354422796332
