48
 energy: -84.849740336747 gnorm: 0.000633273408 xtb: 6.7.1 (edcfbbe)
C            5.62493772737519       -0.90378073548373       -0.00048479193357
O            4.85859714410574        0.16128817756202        0.55682231895916
C            3.53146003923989       -0.14774700596975        0.77667388211026
O            2.88820525837405       -0.25871219050184       -0.47642007210007
C            1.50828656842894       -0.54663048919085       -0.40295319847348
C            1.02205987582550       -0.78194117730197       -1.83532937292585
O            1.22132111709283       -2.13623749047217       -2.15719741878076
C            0.77486363353086        0.62202194177357        0.27667879760922
O           -0.59682445836300        0.29533872583752        0.44864226008555
C           -1.54669539079001        1.30744664680326        0.20741006922517
O           -2.12046393042532        1.15709623787215       -1.06246871308156
C           -2.83704946688970       -0.06727728170667       -1.22660390558362
C           -3.35291799959297       -0.13298873781853       -2.67703202579802
O           -4.59614876982113        0.48245103552698       -2.88049518279674
C           -3.96625753738625       -0.17221715157177       -0.19480291307242
O           -4.64433910105083       -1.38477759664997       -0.39917254602613
C           -3.36574232175840       -0.06992905685318        1.21095362635891
O           -4.41473882312750       -0.14860698037647        2.14542042017395
C           -2.61634026497435        1.26698870820288        1.30899268520327
O           -2.09747800190844        1.47228355632545        2.59596451484394
C            1.39097922485567        0.82952457691174        1.67351446646005
O            0.79283253478249        1.90047127167588        2.36147239938016
C            2.91785881394550        0.97950527318723        1.62016952004043
O            3.47311105651012        0.89249536880771        2.90399154850324
H            5.20860379490538       -1.21108531973934       -0.96114289353097
H            5.64237193346191       -1.75522452957187        0.68548460005900
H            6.62524942634598       -0.50153090508937       -0.12875002044631
H            3.42870250748488       -1.10374609354847        1.33088492694869
H            1.33863794150242       -1.46371741511863        0.17985502317635
H            1.60317253934319       -0.12660735567197       -2.49376427839837
H           -0.04070781440382       -0.51937548393758       -1.89839820478588
H            1.02285605440300       -2.27703573645371       -3.09404554437978
H            0.88595316158627        1.52199493204709       -0.33955127705739
H           -1.07334425013015        2.29655097816838        0.18429109289528
H           -2.14848863942628       -0.90738546643493       -1.06033684657690
H           -2.64127336895393        0.40517029636318       -3.30620294672602
H           -3.39112959784865       -1.18427649225943       -2.97858935344086
H           -5.28575202293447       -0.07637243042697       -2.49387495217542
H           -4.65241438478896        0.67995635651131       -0.32700661508497
H           -5.20165438532008       -1.55026743568473        0.37703895274510
H           -2.65315961273924       -0.89464291568663        1.36866831088739
H           -4.08640551597617        0.17141431243529        2.99887746170140
H           -3.33323632915421        2.07685478494887        1.11600306773051
H           -1.13829164209215        1.31127996006492        2.61141589031129
H            1.15624550888398       -0.05917421638373        2.27169728235820
H            1.03021387638314        2.74316554002696        1.94534791424803
H            3.19301937362325        1.93113502048023        1.13881214217789
H            3.01568052079892        1.51523799996148        3.49267695317313
