48
 energy: -84.745099414961 gnorm: 0.000172477480 xtb: 6.7.1 (edcfbbe)
C            5.64471101758156       -1.05130619761073        0.24099975930203
O            4.88149835030515        0.10499979392215        0.57963600678478
C            3.53681658682436       -0.14519588248216        0.78568745221303
O            2.92921131814973       -0.31920094259475       -0.46881625883011
C            1.53414733066177       -0.61922884666537       -0.43450906533136
C            1.14242630054815       -0.97700573696792       -1.85339448137411
O            1.66749551722324        0.26964120829209       -2.71211328353840
C            0.79499820155395        0.56874745989100        0.24370089435177
O           -0.57147631410629        0.21720840052585        0.44032927621805
C           -1.53178676638124        1.20637936166863        0.20783875945788
O           -2.14928683805758        1.07489781830359       -1.04084921075279
C           -2.84321900379427       -0.16181135464078       -1.22548660116159
C           -3.45942951339164       -0.08225343687183       -2.63070878994844
O           -2.50317363478077        0.19976883592167       -3.61513246642482
C           -3.91763902874784       -0.38005733469780       -0.13972155698655
O           -4.47756840167864       -1.66524233272032       -0.20723807014930
C           -3.28157645208652       -0.22718685760002        1.24857735138110
O           -4.19345187969970       -0.37122254076631        2.30607692959765
C           -2.57799135354576        1.13378516990008        1.32884710824100
O           -1.93593274576884        1.31988504600852        2.56267328591158
C            1.40687735046977        0.86513554044564        1.62210071856587
O            0.88036989242571        2.03834245422840        2.20511693791457
C            2.92546242129105        1.04514169587871        1.53440086758963
O            3.49990339681812        1.09418308631859        2.81199701285852
H            5.23101224984789       -1.54071009288578       -0.64211052161631
H            5.65582197849873       -1.75299828659300        1.07985200905896
H            6.64765533239384       -0.68583447329124        0.04236272957558
H            3.39012829227279       -1.05683333961332        1.40114219279928
H            1.35193691750518       -1.50721853246903        0.19215623960228
H            2.55992880640885        0.39695518327320       -2.32458646319047
H            0.04682104293292       -0.85044995587489       -1.92605332257288
H            1.78320620570514       -0.10435489609378       -3.61092221944906
H            0.86995953589827        1.46085274102819       -0.39094980630562
H           -1.07304664930463        2.20430817822589        0.18945864301976
H           -2.12225303023505       -0.98959528087526       -1.17260786717815
H           -4.24098613915976        0.69010940689894       -2.62720130135574
H           -3.89049614587144       -1.04670700842166       -2.90102367473840
H           -2.05613216415016        1.02273102886555       -3.37038432113880
H           -4.69460779368683        0.39403956651794       -0.25349906418336
H           -5.04872244908056       -1.74897443578257       -0.98316462694345
H           -2.53650942815710       -1.01840708491253        1.38575645012768
H           -5.02336266076260        0.08428349014856        2.10022531927566
H           -3.31176045188660        1.93965514342084        1.16311130489003
H           -2.47688648229712        0.89218820441319        3.24860255274758
H            1.20043010092834       -0.00252676050379        2.26785390498521
H           -0.04796287691012        1.88209904451398        2.45510562379230
H            3.15343504534875        1.96185268266311        0.97132067613758
H            3.06590001552145        1.80637013193948        3.30860793188838
