48
 energy: -84.708747030470 gnorm: 0.000696285665 xtb: 6.7.1 (edcfbbe)
C            5.75051602375572       -0.83749940714924        0.09909756307169
O            4.97064743635954        0.19930395781425        0.69149703236662
C            3.62827015144918       -0.09621980764897        0.83191757871493
O            3.03606371821681       -0.20548886627594       -0.44745980970122
C            1.65555608238820       -0.50466800056289       -0.41079143643928
C            1.20157684041384       -0.69884735604748       -1.86378333507971
O            0.18402298806575       -1.66888630622377       -1.91060775914503
C            0.89556511866475        0.61295948836135        0.32320703272498
O           -0.47232735858870        0.26967819796633        0.43019566699904
C           -1.40572826497445        1.30284152470957        0.23501086875308
O           -1.94473205391793        1.27133288148485       -1.04992115690721
C           -2.55451498593608        0.03658867934798       -1.41399857011034
C           -3.67496666273729        0.09901714177109       -2.29215482392271
O           -4.96763962655270       -2.40547101524612       -3.45489657353389
C           -3.63827098009029       -0.52019206047989       -0.38433232053554
O           -3.87578106424560       -1.87623626568836       -0.53424121088721
C           -3.16272366922247       -0.23853107146414        1.07763038785842
O           -4.25842182634371       -0.35154041859810        1.93525831947248
C           -2.52709545143586        1.14519288596781        1.27179282601711
O           -2.05085483071942        1.28302951872568        2.58224581281998
C            1.48084330353923        0.80142510576940        1.72973376818078
O            0.81077095208573        1.87264052632221        2.34975642758277
C            2.98746983779919        1.04766589200644        1.63430433653110
O            3.49294780630499        1.11438580151329        2.93954038003015
H            5.41051201535534       -1.03685535334172       -0.91747370739081
H            5.68344729428685       -1.74954834187733        0.69835548098045
H            6.76956457322156       -0.46263513566029        0.09194053209125
H            3.48633607966668       -1.05354361882279        1.37791787287854
H            1.48462219517998       -1.44941356602522        0.12889792685281
H            2.08432235060440       -1.01878273242917       -2.42512142413790
H            0.84485160484443        0.25423343388314       -2.27467419293915
H            0.12124644700766       -2.02088365406331       -2.81068423084794
H            1.01222988355565        1.54877030912667       -0.23795766979114
H           -0.93738304110142        2.28948880772955        0.34096469297376
H           -1.80131173403845       -0.74067369203676       -1.55301605080676
H           -4.05135202446457        1.13066732139994       -2.34638207760946
H           -4.52974830899012       -1.55057532441238       -3.28855054059511
H           -5.21187126938922       -2.73137491865954       -2.58234510783247
H           -4.61375806885149       -0.01912207198839       -0.49748741640414
H           -3.04032961156395       -2.36785066661709       -0.57638891470358
H           -2.38998317591794       -0.98374914275098        1.31609894361255
H           -4.59006458777082       -1.26339395966442        1.92730416269476
H           -3.29046040500055        1.91617312091631        1.09545157414613
H           -1.08207438655157        1.39875427589398        2.57298690458664
H            1.31548175377351       -0.12089203168034        2.30782421523664
H            1.29473014935314        2.10285378640739        3.15976591131589
H            3.17538890095834        1.98407085948395        1.08841830891571
H            4.45362392035803        1.23628815589130        2.90634699613573
