48
 energy: -84.842946615149 gnorm: 0.000547546192 xtb: 6.7.1 (edcfbbe)
C            5.60284362127223       -1.05168225182186        0.06541399775382
O            4.89160850543904        0.07355783164616        0.57412474118151
C            3.54450410456397       -0.14718091244505        0.77639902785800
O            2.91828961045836       -0.27143106086229       -0.48290214642876
C            1.52441166686626       -0.48407087052925       -0.43680601836330
C            1.06546847965574       -0.60593501633206       -1.89578251197175
O            1.16624727755240        0.64939501247475       -2.52385680842203
C            0.79233394831880        0.66484994894031        0.28059428893231
O           -0.56075723680031        0.26884581873059        0.48592955861411
C           -1.56656761842463        1.23911808958191        0.28856857427299
O           -2.16971513817073        1.08867830074405       -0.96387972623051
C           -2.82936598466029       -0.15691453313569       -1.15915344798874
C           -3.51947748518857       -0.08598062424815       -2.52421467767175
O           -4.56212362041490        0.85815157854588       -2.46545314068945
C           -3.84596624034338       -0.46869495366713       -0.04845677201618
O           -4.37569435319070       -1.76471924940553       -0.17946752082770
C           -3.22324866517171       -0.27985368300984        1.34276160357553
O           -4.19123669319917       -0.43772527812326        2.35018291915747
C           -2.61015920165554        1.12443891599871        1.41987252393974
O           -2.07040115830369        1.44399903242088        2.66675398087635
C            1.44463863223171        0.91856095082037        1.65079570893975
O            0.89975254393767        2.02832510580635        2.31729342809987
C            2.97271197762397        1.04266399331527        1.55395066418297
O            3.54782416834078        1.04171850828279        2.83217217884244
H            5.21724920611340       -1.33538993571054       -0.91519227079336
H            5.52052909756092       -1.89527410755786        0.75668458441168
H            6.63620157284254       -0.72731048574039       -0.01174633799541
H            3.37644589441829       -1.07504456043510        1.36407376068563
H            1.30348779794008       -1.41956017976899        0.10054420443997
H            1.70497062966612       -1.34908635526915       -2.37792295544676
H            0.02388067388006       -0.95074155734960       -1.90793328875443
H            1.35902691852342        0.53202067642958       -3.46383249970738
H            0.84370502116983        1.55952307594241       -0.34928843399413
H           -1.14398443694146        2.24927074712365        0.28159889963249
H           -2.07559823184053       -0.96007464144144       -1.17768473046620
H           -2.76865467387636        0.20678158819821       -3.26515033226476
H           -3.91530447812434       -1.08194439697345       -2.76066067016436
H           -4.91387301810907        0.99608486771641       -3.35561850816291
H           -4.69651747193633        0.21310633515700       -0.15325369356618
H           -3.66301259833229       -2.41857849399055       -0.10868958368246
H           -2.41420546276206       -1.01810840950209        1.48562678333039
H           -4.80332505336373       -1.13954571482576        2.07564577529142
H           -3.39747018164861        1.86357864987456        1.24062054996582
H           -1.28150787064642        0.90578703687433        2.82834553389052
H            1.21615351281844        0.05903674151520        2.29311985324778
H            1.07698364989734        2.83872212890115        1.81745510577383
H            3.24762323866789        1.95503456926817        1.00179481578977
H            3.06575421216208        1.67480319854636        3.39035068852108
