48
 energy: -84.849646674360 gnorm: 0.000296172529 xtb: 6.7.1 (edcfbbe)
C            5.53586800621729       -1.22542278640921        0.19537715089956
O            4.83777524377927       -0.05285181608745        0.60259156307415
C            3.47980412828281       -0.21728417783726        0.78945758652458
O            2.86171066602905       -0.35568849496165       -0.47450157065376
C            1.45942003677132       -0.52924130424332       -0.41762248331870
C            0.97883173558335       -0.72169969279851       -1.86464913196795
O            1.17919309820137       -2.02626702590429       -2.33337313942441
C            0.75928403270274        0.66874864344704        0.25145093161584
O           -0.58938291422105        0.28259558630080        0.48378631255522
C           -1.59246773839710        1.23467528274862        0.26389138269177
O           -2.21338400644540        1.04795386877877       -0.97888516147083
C           -2.85831538088226       -0.21881618760968       -1.13462319621458
C           -3.42411673881961       -0.22648055616581       -2.56181912704148
O           -2.43365082833213        0.02893114074293       -3.52231908587702
C           -3.94720828872179       -0.41088012654349       -0.06579658871345
O           -4.50661825406499       -1.70090393580485       -0.08994164217182
C           -3.31795696982820       -0.22702333584746        1.32269179797238
O           -4.28722626368184       -0.27426524346521        2.34038074066548
C           -2.63478132600108        1.14085552414755        1.39284756675360
O           -1.99903675935754        1.35737469767121        2.61786966406882
C            1.42459492494227        1.04220678599408        1.58879942114818
O            0.98570413762336        2.28483993147742        2.07705773621174
C            2.96047319543583        1.02970103322594        1.51252199488166
O            3.51716841769397        1.04280720252701        2.79912875423228
H            5.21494980471213       -1.53714511411824       -0.79935702235305
H            5.37037557475720       -2.03485993013007        0.91151843528191
H            6.58473251399965       -0.94400896545986        0.18198260130315
H            3.26414175930504       -1.11354974132361        1.40650113054687
H            1.21519728957003       -1.42773973094137        0.17046320359072
H            1.49827350143367        0.01002178841595       -2.49409227036601
H           -0.09567783529899       -0.54559172515673       -1.91732475009939
H            2.12854389607383       -2.20060297969095       -2.39652110293985
H            0.79640038859331        1.52904344361670       -0.43056721886799
H           -1.17981219254569        2.24869906795356        0.23720351548519
H           -2.11596102204099       -1.02089053015650       -1.02190543711213
H           -4.22444065418857        0.52178065071548       -2.62955747387167
H           -3.81730352742248       -1.21595101411724       -2.79649998367398
H           -2.05081836664511        0.89744246250936       -3.33445074224794
H           -4.72321129807619        0.35783617606792       -0.19561052693295
H           -5.10767889648077       -1.79754134478950       -0.84051473525502
H           -2.55960093836140       -1.00899956187551        1.47366276471637
H           -4.77173591551678       -1.10978542217222        2.26071559844775
H           -3.39573829994741        1.91812899375881        1.21118734231607
H           -2.62204625866903        1.12087183191486        3.32369102274994
H            1.09815394992223        0.31144034258997        2.33691542308066
H            1.26851766895953        2.99293702674099        1.47815211504184
H            3.31156462595191        1.89840974470701        0.93179026411577
H            3.08414507707525        1.74144650728584        3.31687240030555
