48
 energy: -84.707031125687 gnorm: 0.000643209572 xtb: 6.7.1 (edcfbbe)
C            5.79402996364136       -0.79047582928828        0.36095391083433
O            4.99596056587437        0.26462504188025        0.89315870096805
C            3.64298974585015       -0.03689743604640        0.98814788782292
O            3.11236078245437       -0.27921542219704       -0.27974724317042
C            1.74190193196628       -0.70681584854873       -0.25983916735630
C            1.37487464727667       -1.16622968253930       -1.63335111949553
O           -2.15147301899880       -0.80790233494947       -3.52381972639810
C            0.92339231725597        0.48194335442164        0.37228442709989
O           -0.43798301540620        0.10568255521828        0.51380555941622
C           -1.40113430194241        1.07835246385311        0.22012886228924
O           -1.96369270200181        0.92639161717061       -1.05982943828275
C           -2.62160604535994       -0.31986406544439       -1.25950152246650
C           -3.10877494380040       -0.28738976691075       -2.72176646268594
O           -4.32987210425278       -1.13096066944981       -2.89037717276965
C           -3.75885369461120       -0.48903896892731       -0.23904492485060
O           -4.36553265484293       -1.74269627670441       -0.44887067054793
C           -3.18942000032209       -0.36246400989454        1.17416914261551
O           -4.26415678135157       -0.49873882759761        2.07007888972818
C           -2.49494667177189        1.00104170517927        1.30012706832126
O           -1.98656842203982        1.14990676626162        2.60082631692319
C            1.46651341981345        0.86848760351935        1.74957161158196
O            0.74640525931107        1.97512439368952        2.25792837459188
C            2.95672415596368        1.16836233546586        1.64603538945864
O            3.44689994777473        1.42975725182050        2.93439218553990
H            5.43459718318004       -1.07011761666287       -0.63007004374842
H            5.75343547266187       -1.65960430005378        1.02394192209062
H            6.80193064356037       -0.38990101277030        0.31083794322696
H            3.49172009707198       -0.93878378311176        1.62814713596626
H            1.65790681941108       -1.55306318300524        0.45180924223961
H            1.24576937739774       -0.24881786996625       -2.27607183406766
H            0.34923786752876       -1.60237729763488       -1.55609960412984
H           -2.30097491391202       -0.60696921593196       -4.46353935907538
H            1.01046241633538        1.33608400861442       -0.31249685730256
H           -0.95223910378499        2.08038892604900        0.20701228373407
H           -1.89692569833385       -1.13888129190225       -1.14945315698684
H           -3.38098366904958        0.74519339772966       -2.96591882867824
H           -5.14010688019677       -0.62223846950639       -3.12548522512726
H           -4.48980154447128       -1.68262000963591       -2.03855181498500
H           -4.49615235391727        0.31963769912099       -0.36201468426522
H           -4.92461010758634       -1.96113795232950        0.31449277236066
H           -2.43256855717548       -1.14286322830771        1.34695780915977
H           -3.96832870231041       -0.22883120196549        2.95051479275454
H           -3.22699961707648        1.80220326216526        1.11087378169942
H           -1.05737334516610        1.43963607001470        2.56433319998374
H            1.33132465147966        0.00769401988884        2.42430266226652
H            1.24037612284335        2.32437932530323        3.01921670761374
H            3.11200358154355        2.03347029784671        0.98256544826938
H            4.41256590470247        1.50408948332561        2.89227182852999
