48
 energy: -84.853916599043 gnorm: 0.000879330349 xtb: 6.7.1 (edcfbbe)
C            5.61990648384375       -0.85317160900020        0.02104800517161
O            4.83495163072652        0.20929782240119        0.55588681436997
C            3.50799388428520       -0.10716471185463        0.76440185529400
O            2.87229317286189       -0.19381300426285       -0.49471384952093
C            1.48751482359823       -0.47209302206452       -0.44291163238497
C            1.02230514169851       -0.57222779514475       -1.90438426095296
O            1.22736959129970        0.62442150495393       -2.60374278741624
C            0.73226147649874        0.64015122576323        0.30602602945791
O           -0.62605903530920        0.24285616657481        0.45790643719091
C           -1.61204119630524        1.23001500226999        0.27751478198764
O           -2.18476692687473        1.14942303961746       -0.99867823088782
C           -2.85101611457501       -0.07984098875175       -1.27293169167329
C           -3.43375605491205        0.04542717356317       -2.68680866137463
O           -4.28664476949087        1.15263968876372       -2.81090775781644
C           -3.94503380886404       -0.37742924380289       -0.24040397684318
O           -4.44911588342524       -1.66186812982524       -0.50799015157415
C           -3.35571948116132       -0.30117491776676        1.18025913434692
O           -4.33420715244103       -0.58490371235942        2.14889270493646
C           -2.69970302810847        1.07438768111372        1.36190418570199
O           -2.21344123395130        1.30060666454700        2.65184369514331
C            1.35941540378098        0.82586375579505        1.69909997364480
O            0.77439498861929        1.87534303038820        2.42636698755464
C            2.88463068863540        0.99876953865312        1.62481804861372
O            3.45384912554313        0.91157222203915        2.90278908032042
H            5.23293038897527       -1.16568438755032       -0.95016303779324
H            5.62574629816509       -1.70280973682034        0.70933663560204
H            6.62122277758492       -0.44635905489857       -0.08287456726097
H            3.40442415537306       -1.07495245081283        1.29685926402279
H            1.30563349418702       -1.42652197730182        0.07178462552617
H            1.55306436787736       -1.40268855486587       -2.38356795544316
H           -0.05001247348616       -0.76742638941400       -1.92656020425928
H            2.17732619087283        0.81463633981364       -2.60801408064398
H            0.79627578282009        1.56488493931139       -0.27988355645049
H           -1.18028858251786        2.23570185744275        0.33148538795477
H           -2.13563823773858       -0.91258412629014       -1.24718679368356
H           -2.60690793487567        0.11037965623532       -3.40388958826760
H           -4.03385234386024       -0.84161884425660       -2.89374324982273
H           -3.76875662749189        1.95020881309952       -2.62773031903135
H           -4.74549317415701        0.37344139470459       -0.34631585181083
H           -4.95746187017489       -1.95385398827492        0.26503278849143
H           -2.59653787953815       -1.08474366835653        1.28733968442087
H           -4.87259398300058        0.20180144518155        2.31688431097969
H           -3.45109719131697        1.85502398106833        1.19040979805180
H           -1.42202279277411        0.76453328133669        2.80552843368242
H            1.14818492087312       -0.07891724716983        2.28194957781729
H            0.95824219688082        2.72458406272111        1.99820631655177
H            3.13725127556269        1.96123885721422        1.15227262603069
H            2.95833155937139        1.48927540077965        3.50685612179160
