48
 energy: -84.857366755152 gnorm: 0.000500073159 xtb: 6.7.1 (edcfbbe)
C            5.69682121726131       -0.79883967302548        0.20187849508898
O            4.89546632951786        0.21466111176806        0.80576313772721
C            3.55313514296386       -0.10171395572630        0.90878790522542
O            2.99785274659534       -0.21178477056346       -0.38299431194731
C            1.62509672707176       -0.54379667171163       -0.39302253757233
C            1.20036418162937       -0.66202596358527       -1.86308982537042
O            1.72110455233105       -1.79832458246888       -2.49451581901680
C            0.80239536833805        0.52353845299124        0.34843531993166
O           -0.54430337469421        0.09501962190627        0.45558117756236
C           -1.53179794502885        1.08290293184198        0.26851364037634
O           -2.07866348369991        1.03983457307264       -1.01602357728155
C           -2.81550369828242       -0.14266234003352       -1.31969156861073
C           -3.35862536862062        0.00844291462914       -2.74975383084304
O           -2.44020571377177       -0.37386890373643       -3.74006020688451
C           -3.95261012965253       -0.35747152583025       -0.31266298599970
O           -4.59474362674687       -1.56418415302872       -0.62916674950091
C           -3.37581400594570       -0.38351966729436        1.10694409138962
O           -4.44586115669552       -0.54155670615460        2.00598865317025
C           -2.60342249878828        0.91540199594890        1.35890950403972
O           -2.04759679343230        0.87161153550984        2.64749414018666
C            1.36796754710977        0.74993703140801        1.75861248327428
O            0.66915939331891        1.81770284631752        2.35628653939841
C            2.86922686266611        1.03321039206269        1.68626292289701
O            3.34778724970520        1.13578359017634        2.99992850398192
H            5.35439440786785       -1.00024106937422       -0.81374976163598
H            5.65471528873372       -1.71582592409723        0.79624662750657
H            6.70645450622639       -0.39958423615058        0.19141390178509
H            3.41322817779888       -1.06207579905766        1.45146182712827
H            1.47373132023277       -1.50623250867021        0.12314140731919
H            1.60473915843432        0.19274373476439       -2.40820138633718
H            0.10647427978142       -0.63429470946070       -1.91842756975251
H            1.36703060253962       -2.59960326377119       -2.08188086650583
H            0.85780938263765        1.46433471096343       -0.21265582051133
H           -1.08655674889348        2.08309354282951        0.34973882099459
H           -2.14783902411450       -1.01376107774587       -1.26317579637891
H           -3.56685937707277        1.06721342723913       -2.91623742644563
H           -4.28592679300425       -0.56658818063404       -2.82661664310993
H           -2.42011572938943       -1.33890264148402       -3.80585989917862
H           -4.66105018500013        0.48354555950098       -0.38101002948517
H           -5.20916440104345       -1.77508587482418        0.09134766951865
H           -2.67166426426560       -1.22483028599853        1.19935386408369
H           -4.11108926167220       -0.40441615977674        2.90468259816682
H           -3.30343756995740        1.76325953766028        1.28072636815471
H           -1.17142906269035        1.30029506272292        2.64460456737796
H            1.21190810198891       -0.16572942242925        2.34965670927822
H            1.15390379787209        2.07718901781129        3.15732970151245
H            3.04093019405036        1.96558042788316        1.12816174548310
H            4.30631568185167        1.27453303814278        2.98007834917808
