48
 energy: -84.852119517531 gnorm: 0.000739909277 xtb: 6.7.1 (edcfbbe)
C            5.62021978425488       -0.85458385188966       -0.07052520883162
O            4.88908614603264        0.20539357786689        0.54228364453839
C            3.55506887588461       -0.06881215557787        0.75990342715583
O            2.90030581062089       -0.21549687716535       -0.48657923402092
C            1.52581645628471       -0.51692311843295       -0.37179130773966
C            0.97605789757702       -0.74516945357786       -1.79497966620937
O            0.10496608634847       -1.84056413266723       -1.87708314069063
C            0.77887538602679        0.60579488295637        0.36938539136818
O           -0.57107829314239        0.19731294266916        0.51695972230050
C           -1.56254918108036        1.18007450825692        0.33516926715128
O           -2.11966262294884        1.10365189670835       -0.94654541415445
C           -2.71457848796025       -0.15583303638773       -1.26522293536037
C           -3.28455561542736       -0.01246269639172       -2.68331293365138
O           -4.17049582640957        1.07079159029021       -2.79316457044260
C           -3.81201998697731       -0.51866888085606       -0.25675822640646
O           -4.34301538098695       -1.79854222884314       -0.49326498585072
C           -3.27608949318784       -0.42097951620662        1.18082869668925
O           -4.30595119797554       -0.63738042472363        2.11447844523825
C           -2.65409094032910        0.96402300712931        1.41000886842476
O           -2.14817427726741        1.13451462025966        2.70037916962487
C            1.43134945274287        0.87717374524062        1.72996345752946
O            0.82558338993559        2.00904168719887        2.29790245739070
C            2.94573207683704        1.09580479167153        1.55612434540438
O            3.56155842861010        1.29591658135612        2.79717620721737
H            5.23126497255059       -1.05923355641286       -1.06885451074214
H            5.56445194015968       -1.75844816170256        0.54308540848200
H            6.64485619501019       -0.50015787923962       -0.12798999675999
H            3.43398360473493       -1.01787217716657        1.33161028956117
H            1.39617104519391       -1.44172835118335        0.21482383003548
H            1.83503412171266       -0.85807960183970       -2.46442404161940
H            0.39846931764197        0.12577472784446       -2.11171566585482
H            0.60783843437121       -2.66739093137919       -1.83149647894972
H            0.83413951755452        1.52516804634415       -0.22645840657244
H           -1.14389156338004        2.18725677059664        0.42921397254704
H           -1.94142745617347       -0.93630425698732       -1.26088746313771
H           -2.45217500152097        0.09392490916928       -3.38928605474828
H           -3.85895484480806       -0.90671379432536       -2.92921922459917
H           -3.70094326759895        1.86979376107305       -2.51350011193682
H           -4.65238818358748        0.17539585856858       -0.37302364048416
H           -3.62526203725828       -2.44978827306863       -0.50993361646199
H           -2.48406461744657       -1.17788591977972        1.31770291195244
H           -4.89344028537844       -1.32376934065744        1.75867238184201
H           -3.42743122952560        1.72871006013944        1.29232736644170
H           -1.41264916429574        0.51833144496125        2.83171957437890
H            1.26803280289126       -0.00265966783224        2.37622035194843
H            1.38830398532736        2.33695352910207        3.01799833746501
H            3.11829485239026        2.01517308307379        0.98680641786581
H            3.62472233208558        0.46255530857125        3.28758383057607
