48
 energy: -84.740172090314 gnorm: 0.000718490035 xtb: 6.7.1 (edcfbbe)
C            5.63989481174063       -0.94687081046800        0.16315849861496
O            4.86669540092391        0.14962780677587        0.64323113946711
C            3.51892364133260       -0.11595434275504        0.78044930223071
O            2.94924918739617       -0.17931118211836       -0.51000182093085
C            1.56139930667055       -0.45001342979811       -0.53763321009882
C            1.15243194737058       -0.43582750982992       -2.02136404495317
O            1.47330515248527        0.78853133826661       -2.62433223924582
C            0.76974456126487        0.61514809868923        0.23380353773738
O           -0.55564746505653        0.13970622880566        0.42125086721158
C           -1.59663454804795        1.07242627393500        0.27285504479893
O           -2.20798912414072        0.97277752539864       -0.97223834438946
C           -2.81878011667823       -0.30865141661468       -1.22619443073488
C           -3.13991580377469       -0.38408911357302       -2.70223529205248
O           -4.10011765074949        0.77867179555906       -3.03332059206300
C           -3.95776978797345       -0.48691865947952       -0.18206945439844
O           -4.62304915858616       -1.70162988668935       -0.42240126665044
C           -3.34999887357013       -0.44633319904492        1.22254292832639
O           -4.39703336833623       -0.59429635357588        2.15637147500385
C           -2.60295202035432        0.87625969334639        1.42143486134297
O           -1.98787142094115        0.86181439091777        2.68576084856003
C            1.36863988478610        0.86280973016267        1.62962962658374
O            0.74857319368198        1.96086149057119        2.26355020350293
C            2.89393098336937        1.01645539874373        1.60704808929340
O            3.42689666415072        0.93548836252291        2.90144678537343
H            5.29205897425515       -1.26070307385442       -0.82235708320056
H            5.58071103477501       -1.78584291965259        0.86205973730284
H            6.65882679856226       -0.57603883886740        0.10574570010053
H            3.35011661574636       -1.07732049074263        1.30766359528208
H            1.35043381547891       -1.43252754014402       -0.09210505044008
H            1.64687424069020       -1.26739130446681       -2.53461488039647
H            0.07003629006278       -0.55163784137880       -2.10303740849238
H            2.43530013156241        0.89986938670710       -2.59290178993772
H            0.76857234421976        1.53921848845611       -0.35848891726208
H           -1.20344156888419        2.09813790499881        0.30958326145249
H           -2.08982999560836       -1.10912897056120       -1.03468336309991
H           -4.88521524097960        0.83415306658637       -2.44784999135111
H           -3.76562529332733       -1.28319236217639       -2.84005640879269
H           -3.53926997974331        1.57219984776599       -2.92078558412355
H           -4.67458142377741        0.35109923600435       -0.24807794700035
H           -5.16022024371998       -1.90638055162450        0.35755667246755
H           -2.62617743472278       -1.26961189906958        1.32698909822014
H           -4.03798251362169       -0.44752726744369        3.04334078036053
H           -3.33469095882386        1.70075779402475        1.37508670136876
H           -1.14046472025294        1.33987772996347        2.65967436386927
H            1.11825242598848       -0.00469056404800        2.25222598051178
H            1.00857271674787        2.78449188828784        1.82125946263862
H            3.17860072953781        1.96565444936706        1.12689277997174
H            2.96308385829876        1.56486261201005        3.47710378386740
