48
 energy: -84.844420641391 gnorm: 0.000450996241 xtb: 6.7.1 (edcfbbe)
C            5.67357348888012       -0.81378609315839        0.46856770347299
O            4.86890954779817        0.32568266933642        0.76175298095962
C            3.51975230522997        0.05329674631104        0.91314081300012
O            2.99077731912730       -0.39582515206611       -0.31115222529509
C            1.61104124539565       -0.72000969061727       -0.26548771866589
C            1.21476918797955       -1.19760860838551       -1.65299471919623
O           -1.80136543485701       -1.51323226878076       -3.13386537659807
C            0.78209268244787        0.50242813913229        0.16975896560235
O           -0.56097721337079        0.10138356066243        0.38760725520330
C           -1.56205388553730        0.98516012809539       -0.04758592622755
O           -2.10221006282178        0.58375802849673       -1.27931780837648
C           -2.88774801385864       -0.57450570129400       -1.24744781376728
C           -2.74862964162108       -1.53202218982908       -2.16065507688524
O           -4.11347395724677        2.70634875441980       -1.58541943566598
C           -3.95237480134564       -0.62477502413372       -0.18278606412444
O           -4.55035451392556       -1.89261282305001       -0.16450502782523
C           -3.32806577416388       -0.27055925397824        1.17488527848181
O           -4.35581267980161       -0.25305692372099        2.13506780585004
C           -2.63199239135936        1.08756807105489        1.04861423400518
O           -2.07900810940910        1.43617436652306        2.29364172111796
C            1.33196479716298        1.10260570830747        1.47192799439934
O            0.62724984352111        2.29128406789746        1.75269231306116
C            2.83379393934707        1.35774438989332        1.34577973541805
O            3.29762309300157        1.81230357504047        2.58869085415694
H            5.37251485064799       -1.25789188042586       -0.48072042720509
H            5.58486761636927       -1.55408213761534        1.26855604575615
H            6.69132541593500       -0.44002099187963        0.40865151204830
H            3.35921602299547       -0.72561221583436        1.69075096140034
H            1.44414325919328       -1.51230712410102        0.48176706960995
H            1.53139895198765       -0.46393764038395       -2.38857256610968
H            1.69559753502406       -2.14524683443264       -1.87071984473304
H           -1.95033088728314       -2.23741104133953       -3.75990146809891
H            0.82760203955826        1.26421635791840       -0.61815615113961
H           -1.13784937848792        1.97992969658614       -0.23802473638557
H            0.13737094685057       -1.31126732486128       -1.70606002784037
H           -3.41295832925614        2.10654030481774       -1.86972173304240
H           -3.43363344691877       -2.36432593549499       -2.12043841204858
H           -4.46144437280556        3.12193011901119       -2.38260551177287
H           -4.71192025704348        0.14855238029929       -0.39903817499803
H           -5.11549262950281       -1.93522013776738        0.62304195480090
H           -2.57120104896748       -1.02579482758622        1.43888833067287
H           -4.01801926497308        0.18330335287810        2.93071123418522
H           -3.37088903972875        1.84493189944726        0.74152743288947
H           -1.20870286794516        1.85609795350612        2.16332464653673
H            1.16789056968763        0.37866238721563        2.28515564643749
H            1.09904717818748        2.75293109158662        2.46513950839835
H            3.01655343931075        2.10504841346230        0.55924486833274
H            4.25887667840191        1.92586599007092        2.54651910323372
