48
 energy: -84.852616674350 gnorm: 0.000703492516 xtb: 6.7.1 (edcfbbe)
C            5.70411131632902       -0.83764958340347        0.06379202753851
O            4.93143341472568        0.22738805927490        0.61387903805584
C            3.58752175263873       -0.05994597201093        0.77023427655874
O            2.99450592240006       -0.23042824557389       -0.49818888722699
C            1.62230232958538       -0.56040008624781       -0.44101190650106
C            1.15746634208936       -0.80090771769730       -1.87781169821192
O            1.50709438263743       -2.11384308403908       -2.24254453413994
C            0.83055858429364        0.56306478103217        0.25003004328097
O           -0.51297293980127        0.15107355652023        0.42570587290698
C           -1.50628908438328        1.12141760751284        0.20338647890444
O           -2.08222291111485        0.97850221310412       -1.06081162141570
C           -2.75867923874555       -0.26720882754876       -1.24588717498985
C           -3.22983060104776       -0.28351988633065       -2.70631599512787
O           -2.16490870918641       -0.09085893725347       -3.60069083473985
C           -3.91425280510600       -0.38882173651204       -0.24187912261961
O           -4.55881063138638       -1.63763256086189       -0.31309105631694
C           -3.36763648789707       -0.25833017112442        1.19143572237122
O           -4.42606934445385       -0.21439798812413        2.11318246929649
C           -2.54745482699216        1.02805471602213        1.33546656802001
O           -1.92626385285663        1.04412591566470        2.59130138225937
C            1.43861393864890        0.88438714007280        1.62278110294403
O            0.77576303661759        2.01281562050211        2.14692194990579
C            2.94358334302070        1.13015293152207        1.49794143720847
O            3.45792206256793        1.29850083455080        2.79117280450721
H            5.32305533220617       -1.11585622584170       -0.91928880937300
H            5.67699411899211       -1.70535664595327        0.72865867173558
H            6.71507121556541       -0.44929635032471       -0.01398144898814
H            3.44490688205082       -0.98559972964646        1.36802875305337
H            1.48274625479375       -1.48976911363169        0.13234467512593
H            1.66014837788061       -0.06741145813354       -2.51892001075709
H            0.07282080897469       -0.65842616463816       -1.93140780309934
H            1.23546625738747       -2.27255497576542       -3.15804241844623
H            0.87538854009913        1.46424258089403       -0.37482654804627
H           -1.06697334791143        2.12752620990226        0.20437688332388
H           -2.05321021583683       -1.09082931029468       -1.06955763014119
H           -3.99155939261891        0.49393059711914       -2.84276794827556
H           -3.64842446175775       -1.26174616316839       -2.94458637836381
H           -1.78449312593595        0.78221459096285       -3.42988770566144
H           -4.62415737714034        0.43417152806420       -0.40751445414261
H           -5.16752082381939       -1.66326505029038       -1.06372549281393
H           -2.70629417425410       -1.11136007440465        1.40031863874920
H           -4.93474052563947       -1.03540942331923        2.02381789473752
H           -3.23778265068768        1.88284885813678        1.24598785121253
H           -1.07701309875015        1.52053954084718        2.52931870263953
H            1.27662015091311        0.02037660952060        2.28485605436015
H            1.26575240376476        2.30560602831012        2.93265878449913
H            3.11990267089659        2.02654505390687        0.88446753094793
H            4.42046720181167        1.39932549500741        2.73998695248938
