48
 energy: -84.849797438815 gnorm: 0.000612380720 xtb: 6.7.1 (edcfbbe)
C            5.56033047464596       -1.12125137878499        0.18664548178206
O            4.88687761055095        0.02748930770778        0.69634187270853
C            3.51978148641762       -0.11617330423716        0.81966091969315
O            2.94611615523274       -0.21477893380270       -0.46743747490421
C            1.54833348934259       -0.42949354326727       -0.46805546679301
C            1.12979135435791       -0.46381697942243       -1.94653115379710
O            1.38882265233888        0.75399830083944       -2.58929416071617
C            0.79258048516946        0.67826690290192        0.28595336530239
O           -0.54553257693831        0.23265000929037        0.47320901135423
C           -1.56160598819829        1.19144172632911        0.30959022574578
O           -2.15954907106757        1.09475372655231       -0.95339062957808
C           -2.77111900702359       -0.16705137678561       -1.21403667125294
C           -3.27542023164692       -0.10761726879576       -2.66052883710768
O           -2.22678257435127        0.06198918815364       -3.57852782558672
C           -3.89786890373741       -0.45582972327897       -0.20305961851068
O           -4.42440720639429       -1.74764058006346       -0.38598813744713
C           -3.30914664938153       -0.37646298400680        1.21929718417764
O           -4.26304932703125       -0.63319475653289        2.21324104879610
C           -2.62792705043516        0.99101191626259        1.41097001084456
O           -2.10201855369020        1.14935470103110        2.69558409048814
C            1.42875647025526        0.98566792548489        1.64792956913984
O            0.85859437115894        2.17296204868418        2.13566206945814
C            2.95824732929572        1.11569473837917        1.54286380959758
O            3.52401546390641        1.32651540979015        2.80616375550212
H            5.21627671962049       -1.35219441267133       -0.82233074335222
H            5.39150001002832       -1.98201667411008        0.84028311188348
H            6.61307495665644       -0.85589570335423        0.17698774039855
H            3.26711528420150       -1.03838123690139        1.39083485813997
H            1.31289405902801       -1.39285041118415        0.00923066870111
H            1.65858315651870       -1.28670228891159       -2.44004416461885
H            0.05548829035551       -0.63228111589455       -2.01996315278808
H            2.34395560941107        0.91337188563113       -2.56649710112832
H            0.80636277140742        1.59099115402602       -0.32183979745311
H           -1.15334101441980        2.20570543231418        0.37446102243390
H           -2.02054751258623       -0.96428903665104       -1.12147066115563
H           -4.00193631541738        0.71018318849028       -2.74795296600507
H           -3.74710929474849       -1.05625396299965       -2.91950699355033
H           -1.75920013292246        0.88202049192929       -3.36397641258856
H           -4.67609129701083        0.31227833922517       -0.30563044168409
H           -5.17408323905848       -1.72758550969918       -0.99572958133387
H           -2.56600809912414       -1.17423310373565        1.32580650130282
H           -4.92961798889273        0.06956752037909        2.22580696516405
H           -3.37072332889924        1.78901733543145        1.29771996416115
H           -1.43555827173971        0.46515843253194        2.84806735990256
H            1.19401021161774        0.14694878057494        2.32640190102040
H            1.39336684233369        2.49313772949716        2.88007341648347
H            3.21265445135399        2.00129984753930        0.95166085223340
H            3.52654193363549        0.50614324408100        3.32141123493510
