48
 energy: -84.740869150074 gnorm: 0.000683136568 xtb: 6.7.1 (edcfbbe)
C            5.59524976675985       -1.16350447678036        0.09605967488609
O            4.89057353882477       -0.00436102937407        0.53645988317108
C            3.53719735654804       -0.20523070299508        0.73916888432356
O            2.90963186120031       -0.33019660097103       -0.51127774084311
C            1.51139434928948       -0.60386256248897       -0.44766759826832
C            1.06682691228743       -0.91201044136394       -1.86244267496003
O            1.51405547782683        0.39103338523648       -2.68062356027240
C            0.81375193320705        0.58208924383086        0.27333819644184
O           -0.55886282800376        0.25406629426397        0.47466416796795
C           -1.49337048000648        1.27880017515086        0.27592254489545
O           -2.11007015626240        1.18445522109012       -0.97876299024166
C           -2.83831472174937       -0.02716378826291       -1.16826003809647
C           -3.39884948204377       -0.02268498300028       -2.60746448257274
O           -4.75797550179127        0.30543966928183       -2.70227663157398
C           -3.93706926603064       -0.15154678240597       -0.10703573230057
O           -4.63577503109429       -1.34990488484741       -0.32333139563407
C           -3.29933200461290       -0.10573038499194        1.28708227812739
O           -4.33992923980016       -0.21951781574645        2.23210811737617
C           -2.53627947460419        1.22222341258956        1.40732514933356
O           -1.85773776426248        1.35849166594117        2.63383905345971
C            1.45565918458715        0.84374288768586        1.64871054220608
O            0.94163996835389        2.00586129708540        2.25601654301998
C            2.97680027146548        0.99862115986615        1.52274734020288
O            3.60699469960866        1.14968797128874        2.76213113373666
H            5.15375206764477       -1.55724631967344       -0.82058914595012
H            5.57784307686803       -1.93364462872457        0.87283138266635
H            6.61349989496823       -0.83102865512133       -0.08129522678982
H            3.35886242093002       -1.13496795934106        1.32428332846810
H            1.32932238859348       -1.50632814744986        0.15828065419945
H            2.44915019201723        0.47977994985281       -2.39861461140886
H           -0.03446464075062       -0.81108302772439       -1.87367131977642
H            1.50545416837507        0.09552180279928       -3.61550116586061
H            0.89846668645331        1.48440117559136       -0.34429168496322
H           -1.00405973036916        2.26139067602883        0.27725056836960
H           -2.14924137616073       -0.87475441000711       -1.04800366242289
H           -2.85957077716156        0.74583031246012       -3.16400854816226
H           -3.20999138348003       -1.00057747773819       -3.06157292664853
H           -5.27379985938112       -0.41218998957811       -2.30279293074670
H           -4.61653744488896        0.71109745384325       -0.19844019107749
H           -5.20820935872799       -1.50644244067974        0.44463260538165
H           -2.58239390593778       -0.93101122969770        1.38408529315284
H           -3.98482558922100       -0.50612955315889        3.08479481596115
H           -3.23860597998663        2.05036839265636        1.25118464790572
H           -2.47879266738028        1.66204094542147        3.31310253176931
H            1.24206668921560       -0.03547058970236        2.27975539412347
H            0.01298176650107        1.84462371514503        2.50571316479580
H            3.20871610783217        1.91312649876906        0.96899622174218
H            3.35986788412262        0.42540758313745        3.35667318040647
