48
 energy: -84.858154146514 gnorm: 0.000674187790 xtb: 6.7.1 (edcfbbe)
C            5.65232660623857       -0.80589813404400        0.15871125290951
O            4.85976456460148        0.25857209274698        0.68056678246969
C            3.51795534527227       -0.03888736382256        0.82917538720846
O            2.93185413881609       -0.19400317198711       -0.44618999409771
C            1.55049454951935       -0.49853589387135       -0.41350078631089
C            1.09574397395210       -0.61552450271453       -1.87573288879328
O            1.30328981244632        0.56970832051090       -2.59262059236237
C            0.75821581762764        0.59171998806461        0.32578525692466
O           -0.58134252813904        0.15655770852342        0.48930225996061
C           -1.58389112477232        1.12988998952397        0.30705815989629
O           -2.16915171940393        1.04318878424222       -0.95672478342741
C           -2.86994049608386       -0.16826643506112       -1.20959664102278
C           -3.48597275002274       -0.04958911281301       -2.60399620580979
O           -4.49155090681928        0.93542982894389       -2.58999059241203
C           -3.94160410481632       -0.45266974054231       -0.15014854787254
O           -4.46135722562247       -1.73252065914348       -0.40826370919929
C           -3.32530235541672       -0.37851771076950        1.25093054203822
O           -4.35727189699331       -0.56018682489521        2.19031138088535
C           -2.62227799152079        0.97082281218959        1.42684192750187
O           -2.04138821511997        1.02850110244417        2.70562103837859
C            1.36584308647403        0.85873129951427        1.70949383423539
O            0.68670158379815        1.94494105148171        2.29573921762957
C            2.86567509465672        1.12987663792233        1.58368777080358
O            3.38496091321788        1.26920383220520        2.87827860180486
H            5.30827194094083       -1.08826777088861       -0.83659177820709
H            5.60694106377513       -1.67195964132312        0.82462737627373
H            6.66455789107315       -0.41554643712544        0.11325278461378
H            3.37915155749601       -0.97645250184296        1.40842020514691
H            1.38387654819282       -1.45582178336812        0.10246904077309
H            1.62810143584758       -1.45254330667906       -2.34240542933656
H            0.02274276075030       -0.81009451815447       -1.89619565589516
H            2.25179942254974        0.76787724234142       -2.58544475466441
H            0.78790309031066        1.51238254684723       -0.26987881523916
H           -1.15061295957355        2.13770591126038        0.34722386487377
H           -2.16536181041182       -1.01262442221677       -1.20298239287913
H           -2.68384734568507        0.22155755307432       -3.29983157176681
H           -3.90241530659661       -1.02892093026911       -2.86614514983266
H           -4.82825432443920        1.05184440336360       -3.48985400124959
H           -4.73029646409538        0.31007318031230       -0.22796416785826
H           -5.07416954818566       -1.95398353844209        0.31029574356387
H           -2.57126396493588       -1.17477481885359        1.35481853646062
H           -4.01060742533050       -0.33776697811087        3.06736568574991
H           -3.36643790274869        1.77591380267714        1.31920515503772
H           -1.15298867620058        1.42616107078136        2.64734828568581
H            1.22433688883134       -0.03986875801058        2.33007902325866
H            1.19076499773022        2.22338382958806        3.07801821208943
H            3.02767152672124        2.04348990507336        0.99290576628616
H            4.34296242836839        1.40515315597639        2.82614828122843
