48
 energy: -84.730655012850 gnorm: 0.000962045552 xtb: 6.7.1 (edcfbbe)
C            5.62720280580001       -1.15553450321781        0.32463630793828
O            4.93106603279099       -0.02449819408915        0.84428746735233
C            3.55772641479685       -0.18044791907191        0.90101004497362
O            3.05513578013351       -0.30745845969670       -0.40268053005039
C            1.66717085910056       -0.58312604460627       -0.48697352852356
C            1.45884124251830       -0.73663255243424       -1.98948548864729
O           -0.06874023825977       -0.88489054483091       -2.24222987408792
C            0.85845926645340        0.54592672143962        0.21116585011498
O           -0.48363372887521        0.10231610152174        0.42541304572567
C           -1.50396699017415        1.03505163001841        0.20236292687272
O           -2.10845623553196        0.82909195385463       -1.04914646188381
C           -2.95230798328177       -0.32705387735752       -1.18109198376663
C           -3.70640938632510       -0.11178462787989       -2.51587021298009
O           -4.97679166287442       -0.69817222309038       -2.57070393174699
C           -3.93537714825836       -0.52885144884110       -0.01808761527195
O           -4.44231854792381       -1.83433459783267       -0.14841763717727
C           -3.22548050566640       -0.36010353501998        1.32960633698819
O           -4.11429989650708       -0.50055669907742        2.41101444098100
C           -2.51726130297449        0.99211876382516        1.35239608494122
O           -1.83352334736919        1.21617764439803        2.55783550150874
C            1.42959248048778        0.90335396848802        1.60212595679806
O            0.86807246028428        2.10082934622427        2.08978062811582
C            2.95450168373277        1.06070649582415        1.58263264409300
O            3.48185488688237        1.28502180596400        2.85771103501300
H            5.29212377024505       -1.37277303714468       -0.69064349558092
H            5.46059633125754       -2.02737609076585        0.96437595771352
H            6.67555911697234       -0.87348431635302        0.33229782812491
H            3.29139372737796       -1.09440829784907        1.48322133519560
H            1.43710107875209       -1.52117136611256        0.04861380709654
H            1.71499226547784        0.25565359056329       -2.41909703766183
H           -0.10370699225444       -1.15093479063558       -3.18285966243931
H           -0.59267498686464       -0.06280952521509       -2.09884102187698
H            0.87735552352505        1.44975266356515       -0.41171103558770
H           -1.08506112433790        2.04949150173982        0.13801190125945
H           -2.33451658054289       -1.23467729467706       -1.20956476867386
H           -3.86588770573295        0.96352745720485       -2.63209448225522
H           -3.08710954915263       -0.46396338021464       -3.34810506187490
H           -4.91007104700710       -1.63618888352819       -2.33555371734828
H           -4.75237441751960        0.20794286727811       -0.09439305990837
H           -4.91282269136129       -2.07442147930981        0.66419445048361
H           -2.47867658612533       -1.15257937003506        1.45133689093686
H           -4.83027233955994        0.14950898684545        2.33766011052608
H           -3.25200873772093        1.79707747053648        1.18256672257944
H           -2.34126974964975        0.80794194004930        3.27879394886546
H            1.17935823094590        0.06681911239524        2.27410864785703
H           -0.03899946519961        1.92459167316975        2.39986235585920
H            3.22940295902775        1.94054531024782        0.99346032721232
H            3.25400603342812        0.55043303520718        3.44752208924799
