48
 energy: -84.849918950568 gnorm: 0.000407191590 xtb: 6.7.1 (edcfbbe)
C            5.62978795943016       -0.88625610244408        0.11468779623835
O            4.88535922089106        0.18566834746494        0.68989044749804
C            3.53308671476167       -0.06865030214610        0.83666345285181
O            2.94060918582075       -0.20657678417171       -0.43458030728628
C            1.56281929009521       -0.51228961578895       -0.38263020021121
C            1.10245365986826       -0.71894505363137       -1.82651977253288
O            1.38625840700328       -2.04991112287696       -2.18917091851428
C            0.77749043391486        0.60112903190160        0.33432172763071
O           -0.56207031870391        0.16125618989758        0.50387679891156
C           -1.57454404695390        1.12104834017975        0.30323934944830
O           -2.14267115493128        1.00267491473988       -0.96953760953136
C           -2.76048003998489       -0.25579739351974       -1.22591087819615
C           -3.17847708272673       -0.24184906890149       -2.69523561869057
O           -2.01833246696286       -0.34802727185977       -3.48721475620949
C           -3.93292540164613       -0.45913958947350       -0.25251250481667
O           -4.55027762407976       -1.71678511999837       -0.39229325808914
C           -3.38264696638267       -0.39294077356968        1.18207729570742
O           -4.42044252174209       -0.49446761753852        2.12290448074047
C           -2.65057263781957        0.93833558649270        1.40216879333613
O           -2.10054007372847        1.04221069908354        2.68051981770559
C            1.40038410988574        0.93742296556880        1.69672474177217
O            0.78572209240292        2.10581477433201        2.17324376992385
C            2.91731435909913        1.12737009299353        1.57514219636586
O            3.43215349624354        1.26042962323716        2.87288164110724
H            5.24261376931488       -1.12966598044756       -0.87517028048026
H            5.57811640048870       -1.76890534746944        0.75822360873692
H            6.65097949321227       -0.52341931471345        0.04745632340742
H            3.36505528970021       -0.99874547131990        1.42171714204674
H            1.41108721795724       -1.45322901326117        0.16962133815203
H            1.65741276700241       -0.01335693928763       -2.45569259173800
H            0.03075387530087       -0.51151389454573       -1.90784652825777
H            1.12004755044853       -2.19094830032723       -3.10898647045852
H            0.79950723734168        1.50581567323323       -0.28574480716696
H           -1.16515989217024        2.13467834695770        0.36060665612064
H           -2.03276057099890       -1.06429960307633       -1.07055176746310
H           -3.70426773159198        0.69921147870622       -2.89057003646643
H           -3.84087710612488       -1.09499425935067       -2.88426515107376
H           -2.25388916717754       -0.21485469436104       -4.41655609656123
H           -4.65659581217324        0.35658863736649       -0.38221685720464
H           -5.19699095454552       -1.70114900018881       -1.11055907553330
H           -2.66442496829537       -1.21799875674482        1.31310628178615
H           -4.91387357938343       -1.30910652173324        1.93749101146504
H           -3.37485594964078        1.75501535917356        1.32444889776898
H           -1.42574434966106        0.35565651697831        2.78213598150060
H            1.21783159006873        0.09721864817457        2.38481491085512
H            1.21674786452314        2.36565471740985        3.00235471084760
H            3.12050700810888        2.02681217826948        0.97520969487488
H            4.39602943513872        1.34698178976904        2.82351768151551
