48
 energy: -84.854243230767 gnorm: 0.000840267654 xtb: 6.7.1 (edcfbbe)
C            5.59921513094950       -1.02733450586065        0.21953998065861
O            4.84384152881303        0.07469688996552        0.71524412597576
C            3.48997853676379       -0.16290714210889        0.86627173694737
O            2.89656875555387       -0.34945817980476       -0.40170975162799
C            1.50120040999947       -0.58134885726668       -0.35421602648419
C            1.02855388792978       -0.74903074260607       -1.80559666543643
O            1.28255797111100       -2.02689167212101       -2.31920889742254
C            0.75246764200487        0.57407190186752        0.33409074754474
O           -0.60338806239560        0.18425493661897        0.49567094334117
C           -1.58178035404045        1.17411615416516        0.26284544000822
O           -2.14048658823688        1.04579966403018       -1.01380387320280
C           -2.85627424867010       -0.16161283491875       -1.25198504467932
C           -3.44364770987804       -0.06790164027287       -2.66083153330211
O           -4.41779139120457        0.94774783626921       -2.69389184579478
C           -3.95754552313093       -0.39610278446400       -0.21207733062011
O           -4.50851714473337       -1.66961664749710       -0.44140590655502
C           -3.36065739322105       -0.30140233447573        1.20068620180574
O           -4.34220253255568       -0.54013124023454        2.17928986349816
C           -2.67238693483942        1.06128067122380        1.35078465316312
O           -2.17167193551769        1.28074446838800        2.63651791592524
C            1.37628749579918        0.89639545295616        1.69861835234833
O            0.77548416487088        2.06466481818039        2.19117193197664
C            2.89198988156957        1.06849226164185        1.56095906367726
O            3.41499058459780        1.24265820348228        2.84977970450609
H            5.29446209757345       -1.27318675259440       -0.79764049875632
H            5.46933347307401       -1.89838946052729        0.86742040055702
H            6.63335604918555       -0.69586776962216        0.23336634547416
H            3.31136343957676       -1.06670462389667        1.48753234653736
H            1.29211431685494       -1.50517082082783        0.20743432135519
H            1.51107962827518        0.02683330524457       -2.41129844463447
H           -0.05279386159013       -0.61331173684313       -1.84279286509434
H            2.23900870334013       -2.16307837112455       -2.37482326985726
H            0.81404224460980        1.46935924879304       -0.29634408905336
H           -1.13500757533934        2.17375440348487        0.29417075235939
H           -2.16983192198189       -1.01978051159612       -1.21093755082382
H           -2.62555539319386        0.15429869562415       -3.35561937357079
H           -3.88461340951261       -1.04283498947744       -2.89781080500419
H           -4.75646035024876        1.02716995888428       -3.59685033443029
H           -4.72769274790258        0.38115238642126       -0.33879126791277
H           -5.00252662312811       -1.92758461337926        0.35390179869236
H           -2.61849198108052       -1.09933656589359        1.32312947187371
H           -4.85557342565662        0.26584578500209        2.33501440848464
H           -3.40221413265659        1.85941484532654        1.17167719612403
H           -1.41698812788641        0.69353744864579        2.78441512364856
H            1.18937512012905        0.05206171930859        2.38136025953281
H            1.25821970391928        2.34850293717859        2.98381186552847
H            3.10218294200675        1.94240463886495        0.92695457277298
H            4.37781274119136        1.34045225600757        2.79385090615287
