48
 energy: -84.861982824667 gnorm: 0.000493091730 xtb: 6.7.1 (edcfbbe)
C            5.66198335977190       -0.86755463152680        0.14841471192271
O            4.88502786547267        0.21760467566750        0.65026043990333
C            3.53454503492725       -0.04914110820704        0.77933780505242
O            2.96277355868893       -0.19241245704592       -0.50342706689481
C            1.57600780374685       -0.47415120898708       -0.48956872751801
C            1.13707620985441       -0.56782907159798       -1.95934549695710
O            1.32247071688159        0.64168636594023       -2.64148801311992
C            0.79296846647313        0.62494513018952        0.24559196488473
O           -0.55199857202755        0.20483586690159        0.40269119872626
C           -1.53954992503068        1.18829380900412        0.21411252369023
O           -2.11793713959161        1.10276741831059       -1.05529859047040
C           -2.80898440374411       -0.12171891394345       -1.29526424675281
C           -3.33681788956967       -0.06512633395347       -2.73082333129615
O           -2.30324691501178       -0.09173114346388       -3.68016770151394
C           -3.93807462659121       -0.31924258574677       -0.27841248837295
O           -4.55461488497681       -1.55237153027275       -0.53430484334986
C           -3.35328847244674       -0.26666308480940        1.13901004702494
O           -4.41920279684726       -0.38843044543684        2.04918998179741
C           -2.58895329135338        1.04853762456193        1.32844508539741
O           -2.00492330671245        1.05941688922202        2.60618926105954
C            1.39237993040239        0.88976304838326        1.63331721307752
O            0.72440525137708        1.99003088135675        2.20678294380356
C            2.89720440714708        1.13590250058005        1.52061719132458
O            3.40610473271566        1.27568366977734        2.81929290140174
H            5.32610241032262       -1.15098357878386       -0.84941872889948
H            5.58919971320223       -1.72682992102909        0.82083564449120
H            6.68287709548273       -0.49902499916868        0.11417275950582
H            3.36631384894869       -0.98201772993372        1.35840450533655
H            1.38751398900816       -1.43252308373291        0.01647438498556
H            1.69386297857037       -1.37982549106251       -2.43976685765274
H            0.07032375648378       -0.79082502884513       -2.00191731235629
H            2.27081847287682        0.83588068857297       -2.67174733118831
H            0.83699625584234        1.54478198102651       -0.35059397305997
H           -1.09529654176049        2.19140118257966        0.25527697514991
H           -2.10971033134697       -0.96377950269001       -1.19896038137843
H           -3.94784310569080        0.83870028183729       -2.84216373474285
H           -3.95094506388586       -0.94853956611956       -2.90991983959854
H           -1.73301326650574        0.67770799017326       -3.53768707348723
H           -4.66613303353196        0.50170196868408       -0.38097144869976
H           -5.16143923255181       -1.74207970852330        0.19875478015430
H           -2.64304919237099       -1.09806793950636        1.26712794702099
H           -4.07985678308075       -0.22278667620910        2.94122256988306
H           -3.29986908648180        1.88566235809802        1.23533317096304
H           -1.12569838605960        1.47873171070559        2.56286570690060
H            1.23120743437534       -0.00274255060513        2.25798961410800
H            1.22953511891960        2.27011762481487        2.98770782893571
H            3.08118168262163        2.04258946955760        0.92581328838541
H            4.36787016160289        1.38487713954804        2.77570380382010
