48
 energy: -84.740921209009 gnorm: 0.000699713334 xtb: 6.7.1 (edcfbbe)
C            5.54289861755008       -0.76674622896389       -0.23642873085514
O            4.76010477547529        0.25862529275913        0.36543721437329
C            3.46299950978352       -0.12086022873074        0.68277817160090
O            2.74721987726952       -0.37305226805110       -0.49065799474078
C            1.35407482452904       -0.79859310271021       -0.24383834332952
C            0.63732450391354       -1.30745090847328       -1.44998066368682
O            0.42013041293374       -0.16414172878072       -2.45656769871852
C            0.66115807158468        0.41439013676032        0.39574202386346
O           -0.70776689665300        0.11920459534436        0.57948703945769
C           -1.60162221136336        1.15714508289301        0.29142276972287
O           -2.14531473045371        0.95451382056980       -0.99189023517502
C           -2.85651333412333       -0.28098301937746       -1.11970003401348
C           -3.38479261104662       -0.29944601198117       -2.55888905908135
O           -4.06409207807170       -1.51092965025160       -2.79195702363472
C           -3.99716551020407       -0.41176228754261       -0.09308577199945
O           -4.51744326360043       -1.71572383539484       -0.08869966943123
C           -3.49322106118666       -0.11402488294393        1.32564982568495
O           -4.60516168108887       -0.03240392965231        2.18313474040020
C           -2.70295589660279        1.20324549978722        1.35093073223033
O           -2.19215204249233        1.43606852852633        2.64165281232522
C            1.33707557913781        0.74010593593617        1.73121747223832
O            0.69324439974131        1.85409177810466        2.30829817592232
C            2.82915756835093        1.02467040033573        1.49420165077729
O            3.48939762426555        1.27033707492413        2.70580230362753
H            5.08417007913199       -1.10147734206679       -1.16853661738697
H            5.64694755749560       -1.61576821659551        0.44561326451935
H            6.51109659657970       -0.31467392647322       -0.42874368509147
H            3.46973309084391       -1.04777285123222        1.30471076693801
H            1.38605581356351       -1.62695901126481        0.47650395065708
H            1.31687378187091       -1.98166952786019       -1.99284134025596
H            1.22194164557408        0.38582069396273       -2.58872981520830
H           -0.31849140240842        0.37972194669133       -2.10665998203284
H            0.78091369178279        1.29257033671073       -0.25162208244744
H           -1.09478671354302        2.13000778792856        0.24938167274386
H           -2.16210079956811       -1.11940003411633       -0.96354699356323
H           -4.05618080395152        0.55926596563864       -2.69116592720488
H           -2.53146318958870       -0.19509424993007       -3.23678517941871
H           -4.29310365424064       -1.57782879299046       -3.72950216935238
H           -4.79347084720996        0.31634102157141       -0.32322153893197
H           -4.65519319976108       -1.98838140085834       -1.01428636361259
H           -2.82855555937886       -0.93479813734711        1.63292471000985
H           -4.28738635875516        0.24155598616855        3.05695165493921
H           -3.39148271633373        2.02354414989625        1.09770199320514
H           -1.22065305531645        1.49365055531742        2.60967980478615
H            1.23210803506053       -0.13189919927769        2.39704214397337
H            1.27024878741966        2.22098985512054        2.99774156835737
H            2.93740782793741        1.94581925307810        0.91068882356128
H            3.62967494245572        0.44390105733594        3.19068463274591
