48
 energy: -84.732957489061 gnorm: 0.000556408163 xtb: 6.7.1 (edcfbbe)
C            5.63004041348635       -1.02373401313406        0.32896107089914
O            4.90456593516157        0.06648765387578        0.89405596055758
C            3.53410269926786       -0.11951776685235        0.92855567492810
O            3.04445723142565       -0.22404688565327       -0.38257530766435
C            1.66322147342811       -0.52693118488007       -0.48888249736287
C            1.45334488525684       -0.62298026350902       -1.99534379050180
O           -0.06646942330981       -0.83346207787918       -2.23910613309751
C            0.81884868849727        0.55447046198081        0.24405758927173
O           -0.51038921406885        0.07237148686113        0.42447167297847
C           -1.54596171049440        1.00053416436154        0.22416219154224
O           -2.11578765741161        0.82188399956226       -1.04397689873174
C           -2.98531814256736       -0.31014038499584       -1.20189649562344
C           -3.71172547421084       -0.12937199436054       -2.53872760939792
O           -4.51022699130654        1.03034318412502       -2.47115138140299
C           -4.02070688660908       -0.47216497004119       -0.07160965744573
O           -4.74108817466852       -1.66075863119936       -0.25839230853102
C           -3.31849747226491       -0.40969660225517        1.28553161444534
O           -4.27363479613326       -0.52378592098979        2.30846431468733
C           -2.55617499227205        0.91491731133628        1.37221379917404
O           -1.92853451179471        0.98755846856240        2.62673204950254
C            1.37630741481886        0.86709662203234        1.64053289437926
O            0.70436977915186        1.99988425700936        2.15704746832640
C            2.89091877426158        1.09246495864210        1.61559445740331
O            3.37177866450593        1.35473407369432        2.90592581182981
H            5.32139866853232       -1.18899563985314       -0.70400323238410
H            5.46199065326240       -1.93232607121504        0.91472839282676
H            6.67335416329928       -0.72748271578296        0.37707254949850
H            3.27804585509545       -1.05069857020803        1.48787004928454
H            1.44972622098785       -1.49014293137875        0.00641520857779
H            1.65903107168958        0.39742018078631       -2.38463594693160
H           -0.10750189283730       -1.05206031311619       -3.19135885007273
H           -0.62984928247567       -0.04686721603731       -2.04103924030415
H            0.82107589070166        1.48047764930595       -0.34604586233793
H           -1.13335528571699        2.02021077485038        0.19832014523658
H           -2.38188814712849       -1.22866780572528       -1.23033754677493
H           -2.97441760291845       -0.03136196044859       -3.34309561021705
H           -4.32569081826976       -1.02224823376632       -2.69882594483671
H           -5.04606360773944        1.09145524445146       -3.27432677849487
H           -4.75473041382954        0.33849573862195       -0.13143571772153
H           -4.24300245740388       -2.40948259616834        0.10059869913249
H           -2.58117452285093       -1.22770749663889        1.36140994193778
H           -3.85501160062316       -0.26026233193693        3.14203156627436
H           -3.27223562428125        1.74492740415403        1.25846256828419
H           -1.09057086226811        1.48197365215141        2.55308262625327
H            1.15736346168708       -0.00348405188854        2.28163668258520
H            1.25081143491748        2.36787241792496        2.87227800612130
H            3.12737430212518        1.97861202409765        1.01634386130753
H            3.48863888983005        0.53053587114580        3.40040099418964
