48
 energy: -84.723009731768 gnorm: 0.000454804260 xtb: 6.7.1 (edcfbbe)
C            5.65235649093876       -0.78010423818425        0.04886163016286
O            4.88770568568628        0.23179413661045        0.70135872505214
C            3.54344073203699       -0.07182795438117        0.84348455865553
O            2.95632558544068       -0.22765968858565       -0.41866723078254
C            1.58195176998478       -0.61895541797102       -0.37213696785913
C            1.16668034247946       -1.00084879130876       -1.78717587470933
O           -0.06261992400653       -1.86184327404865       -1.65844715306089
C            0.80975162450711        0.53485828777903        0.33387165123553
O           -0.56175478899782        0.19991873707644        0.43852525651236
C           -1.49151972929057        1.22333369665368        0.21281880073179
O           -2.03006221010540        1.17338030590452       -1.08165290961323
C           -2.63250363460289       -0.08356191263402       -1.37165175597365
C           -3.12474321888712       -0.05086610938445       -2.81814113754902
O           -3.64814109145114       -1.33637875714097       -3.19621871239803
C           -3.80638722909973       -0.34197138044721       -0.41493488436931
O           -4.36150520367526       -1.59378188358508       -0.74965234763725
C           -3.30333333910101       -0.28918394747122        1.02917830197335
O           -4.40980034051135       -0.46725816911342        1.87984463821862
C           -2.61079795037962        1.06504902585792        1.25903620649914
O           -2.12998339541592        1.13036514385091        2.57937773269550
C            1.37867003274694        0.78552073664624        1.73083210696108
O            0.69241404047622        1.85705344125467        2.34614041873438
C            2.87933893887380        1.07074107686455        1.62765804555382
O            3.43648508083366        1.28596058716065        2.89660003569623
H            5.25713909590204       -0.96603111893006       -0.95066588224249
H            5.62665613930253       -1.70522414265583        0.63256195950315
H            6.66255612465638       -0.38563729210325        0.00007022389350
H            3.41916800404126       -1.02650456063455        1.41410077083369
H            1.49371041278148       -1.51229509915558        0.27724248062237
H            0.76003087100807       -0.06396229886395       -2.26502302067026
H           -2.30155424798622        0.22411317958131       -3.47465060295543
H            0.26555132958292       -2.76299645271477       -1.76351026246785
H            0.93437955996640        1.43728715769090       -0.28016565224794
H           -1.02417278978335        2.21260743446600        0.29826285968631
H           -1.87526806032178       -0.87337287210652       -1.24766340689067
H           -3.93229939931282        0.67427864384288       -2.92565897660901
H           -4.16655888710777       -1.67078166379813       -2.38013886885400
H           -2.91015765114331       -1.96321454936584       -3.36574073612614
H           -4.56083035291384        0.45122434641141       -0.52998570574050
H           -5.01911171006426       -1.84304404005909       -0.08277869508551
H           -2.55611654128363       -1.08123455536325        1.19087577911835
H           -4.14373402877413       -0.24199892754546        2.78187866274067
H           -3.34152413177891        1.87467681396569        1.10897916017190
H           -1.18443033101734        1.35756123813450        2.57877946746602
H            1.22382962602392       -0.12964583215854        2.32804279702311
H            1.25735416549260        2.20758810417295        3.05630333259174
H            3.03835071883306        1.99624303586243        1.06340636871438
H            3.61804383613134        0.44224380038737        3.33634092146403
