48
 energy: -84.854566307165 gnorm: 0.000393557556 xtb: 6.7.1 (edcfbbe)
C            5.64059869363448       -0.90522032544272        0.11376153565401
O            4.87678552296502        0.18729074424359        0.61996146782076
C            3.53171005027205       -0.07522150271316        0.77832699598615
O            2.94109544542305       -0.24327950334092       -0.49579324370940
C            1.55910348728979       -0.54472358459552       -0.46620848190952
C            1.11032027687887       -0.68015450275158       -1.92865861940645
O            1.32053253830046        0.49601571311022       -2.65949296259152
C            0.76748458061210        0.55829610413801        0.25267052490019
O           -0.57186951754234        0.12472041710496        0.43261064264866
C           -1.57413128749701        1.09122590165747        0.23592405657175
O           -2.17226067276561        0.98304170860578       -1.02277132862654
C           -2.87066112236796       -0.23348939563442       -1.26125152455430
C           -3.47633488428240       -0.06316688949557       -2.66467005555131
O           -4.32997530663178       -1.09450632305485       -3.06891173841323
C           -3.92945290311772       -0.52394984385141       -0.18790174637871
O           -4.38632477054414       -1.83581649000003       -0.39160339030555
C           -3.32261512022934       -0.38728410575473        1.21649306357139
O           -4.36952619959585       -0.52872474820590        2.14628863098108
C           -2.60795783264116        0.95882551569699        1.36350315062516
O           -2.01636405247955        1.02151951231356        2.63695667001682
C            1.37643088513604        0.85369135106727        1.62927057868034
O            0.70998945185643        1.96201854347678        2.19099390810408
C            2.88547971903763        1.11096740865863        1.51107083086258
O            3.44634825853063        1.36504705759539        2.76803342578634
H            5.29146186276256       -1.19109201122857       -0.87908871653820
H            5.57262007476444       -1.76209852209025        0.79013037157608
H            6.66281372548384       -0.54262365498255        0.06613674202527
H            3.37439827357923       -1.00875797437477        1.36463095879838
H            1.38801616734296       -1.49534725572471        0.06110187822070
H            1.64284804156837       -1.52379230019124       -2.38298275753003
H            0.03708408212417       -0.87227480409780       -1.95020232342516
H            2.26903309645012        0.69351241145325       -2.65466107776779
H            0.79416150451910        1.46592531461778       -0.36231463024981
H           -1.14119669380686        2.10003509021141        0.25058211419212
H           -2.16467922072631       -1.07785062560285       -1.24835591448198
H           -4.07535627712690        0.85043348722792       -2.66876669437082
H           -2.64461352983284        0.06823421782902       -3.37068911997972
H           -3.89519665156022       -1.95011638832896       -2.94437286676967
H           -4.75594262713540        0.19625933675114       -0.28112998844804
H           -5.04748458909770       -2.03684075977292        0.28742091209840
H           -2.57596457823659       -1.18451575645334        1.35804854249298
H           -4.02736086810388       -0.31007288564505        3.02569497993289
H           -3.34411415629873        1.77057972563376        1.24989572521513
H           -1.15479805164166        1.47371434917171        2.58035468373336
H            1.20725541202283       -0.03053328265977        2.26642200015119
H            1.27944173105954        2.33757957863891        2.88420135276827
H            3.06307876901396        2.01338726588537        0.91673095298895
H            3.54648727018750        0.54432967718937        3.27261852315288
