48
 energy: -84.855695194416 gnorm: 0.000740332190 xtb: 6.7.1 (edcfbbe)
C            5.53750123114509       -1.19564491219944        0.28127200509559
O            4.86597318149776       -0.02491716510337        0.74080397830882
C            3.49113821020106       -0.14432367758625        0.82503534473628
O            2.94978140794473       -0.21129807411984       -0.47574575801856
C            1.54389278742120       -0.36197413260148       -0.51634956037280
C            1.16306882001349       -0.27002218796608       -2.00444866895719
O            1.61705535106426        0.92679525750785       -2.57484189670013
C            0.79693050076103        0.71956614556532        0.28425149534372
O           -0.53522060207779        0.25281733653508        0.46467015693999
C           -1.56573121097338        1.20455506917997        0.34100431581112
O           -2.16931068365623        1.13835879063356       -0.92220797553871
C           -2.78751941847826       -0.11166137621198       -1.21456570123315
C           -3.33004080217315       -0.04289227440621       -2.65114205113804
O           -2.40210568554966       -0.47178859682407       -3.61432223939684
C           -3.89608014488048       -0.40559286708923       -0.19596547933676
O           -4.47229537550352       -1.65087786847138       -0.49388508846928
C           -3.28022545125800       -0.40115817246455        1.21400694385034
O           -4.24249506970976       -0.72880981117831        2.18581596282969
C           -2.61031701095031        0.95808993451010        1.45575465693039
O           -2.05966535346758        1.06784072010023        2.73509874608207
C            1.43141590667956        0.98908917600799        1.65643428812785
O            0.86829029213842        2.16947713221699        2.16578236112941
C            2.95503612048208        1.09757545946656        1.54875559534690
O            3.46553836921639        1.20302131829407        2.85045359030095
H            5.19607216120099       -1.46765278102090       -0.71793315071376
H            5.36186981085231       -2.02574702531453        0.97103693905757
H            6.59157362791967       -0.93548141534963        0.26312547527378
H            3.20561370624828       -1.05781335050487        1.38846499835396
H            1.25799184901557       -1.34263785505286       -0.10774247375032
H            1.57912580648298       -1.13499218408203       -2.53303168487181
H            0.07728542143207       -0.26642688903606       -2.10951454883842
H            2.58087255279854        0.96186247233048       -2.47860716155133
H            0.79920404150414        1.65272145008152       -0.29156069586561
H           -1.16776171891533        2.22081060165319        0.43078477043450
H           -2.03954810026104       -0.91435459903134       -1.14330574546719
H           -3.54783819409747        1.00277556825786       -2.87734033412550
H           -4.25033546673247       -0.63248776124818       -2.70286348682400
H           -2.35036068500877       -1.43790074678310       -3.59917059963342
H           -4.65748407449821        0.38959496845993       -0.26265692538180
H           -4.93239585147716       -1.96756005341556        0.30119928124556
H           -2.52303546098480       -1.19282973499684        1.26787346150843
H           -4.74048026852524        0.06101908981411        2.44084382760013
H           -3.36229995537550        1.75269791894909        1.38580690742066
H           -1.30846626908480        0.46254652320119        2.80601037259860
H            1.20364986612437        0.13909757245636        2.32018305201684
H            1.33518655171457        2.40619263308058        2.98246200498277
H            3.21856747682135        1.97974256753377        0.94775137309275
H            4.43305780230188        1.23790679577260        2.80898033597668
