48
 energy: -84.706602408939 gnorm: 0.000924215512 xtb: 6.7.1 (edcfbbe)
C            5.31414919410268       -1.60949689671449        0.61195168467565
O            4.78315675043376       -0.34961033698164        1.01664460331126
C            3.39913512649113       -0.26376494085468        0.94741821849637
O            2.97635849277114       -0.40298199277635       -0.37899695191821
C            1.56952162125531       -0.49826187364904       -0.52568038250759
C            1.35061075526942       -0.72908520038649       -2.03608016815094
O            0.01197125339652       -0.30656725805683       -2.43253202771372
C            0.84660381447654        0.72080278669166        0.13840740447712
O           -0.48166583815840        0.30428151833475        0.42706675516345
C           -1.52503142143002        1.20778548086657        0.21781654961133
O           -2.19186395693662        0.96815342714462       -0.99672582717919
C           -2.67030934246516       -0.37812482428916       -1.10038206399456
C           -3.12392048368526       -0.58231847730619       -2.53912153226527
O           -3.89258453215192        0.53869066524407       -3.02169464059942
C           -3.76941626796685       -0.60114935511472       -0.04648884279731
O           -4.30368792619349       -1.88983091508065       -0.19510062320521
C           -3.13758983756416       -0.36019809500768        1.33180500037580
O           -4.05219534015612       -0.57061293103663        2.37906596376031
C           -2.54059626642258        1.05605346609700        1.37503778482333
O           -1.90676452123335        1.32082249956012        2.59515736414102
C            1.47299747317070        1.22791019683704        1.44571952235137
O            1.05629261971958        2.56236524383841        1.62245282559191
C            2.99700360444023        1.12206780375393        1.46033449430212
O            3.43568716456537        1.36227561827014        2.77156967049236
H            5.01399086620740       -1.83313331571385       -0.41293854111676
H            4.95595806657081       -2.39802784348388        1.28005622236676
H            6.39212656054565       -1.50229088314523        0.68497717670362
H            2.92576349652652       -1.05453631431535        1.57302330053568
H            1.21617174690350       -1.37945712918572        0.05254381020206
H            2.06602045664136        0.02152904998981       -2.52551151421268
H           -0.14034386113348        0.63670359971327       -2.24952548371315
H           -2.23151462733038       -0.66234980384620       -3.16185715453599
H            0.84465100110322        1.56582295704120       -0.56670377493099
H           -1.15547159062882        2.23928843701483        0.17764863082782
H           -1.84479673165816       -1.07382341407120       -0.91153374941793
H           -4.80718932722781        0.52545696217161       -2.65433456728151
H           -3.71996872616566       -1.48945467179607       -2.61023678304300
H           -3.41298831819636        1.35280048986496       -2.73410790740456
H           -4.57609011314475        0.14084150126165       -0.17832330668906
H           -4.48990579705663       -2.27033499339665        0.67484179374653
H           -2.32400754429350       -1.07592252391143        1.49298595997946
H           -4.79707832806446        0.04705609236517        2.29937934553653
H           -3.34060247587063        1.79955604562687        1.20771202730179
H           -2.39076380349634        0.85193633080083        3.29573186556908
H            1.08469465141482        0.60095285511439        2.26363252436955
H            1.43920004858352        2.89307205890914        2.45016631762446
H            3.42259520327863        1.85879211205794        0.76076026809283
H            4.38752297683823        1.18398584310625        2.81797855732474
