48
 energy: -84.732397599602 gnorm: 0.000225610466 xtb: 6.7.1 (edcfbbe)
C            5.58673815749532       -1.27471498864962        0.37393662521843
O            4.94479098291721       -0.09099401669503        0.84415922252942
C            3.56546164532552       -0.17924814352076        0.89290062638208
O            3.06737598124660       -0.32083866963389       -0.41103183714903
C            1.67171819715849       -0.54945047262534       -0.49526940660539
C            1.46138517181028       -0.71962234343171       -1.99605019071747
O           -0.07090464701511       -0.79609323582412       -2.25870335863851
C            0.89319811457867        0.61436076604934        0.18060578924441
O           -0.45021798129198        0.19096806214523        0.42211022997395
C           -1.46964895022774        1.12555685258450        0.18569163863612
O           -2.07941213567403        0.87513971792759       -1.05156414852536
C           -2.90158247994664       -0.30212665488153       -1.11789407192423
C           -3.69138160051137       -0.21788536665930       -2.42893008037011
O           -4.59091344028056        0.86476052913605       -2.34820303870120
C           -3.87404664769020       -0.45196643621597        0.06318874849765
O           -4.51662693829950       -1.70032657474510        0.03221146238899
C           -3.14853450819960       -0.24431034262666        1.39679668906331
O           -4.04116125268504       -0.25995625489193        2.48485027037606
C           -2.46192985724900        1.11719932268678        1.35229523362911
O           -1.74881677290787        1.40379398417646        2.52663411673447
C            1.48172707477049        1.00433477120651        1.55586763238366
O            0.95955235552803        2.23678496513534        1.99849955655729
C            3.01119176591057        1.10724381537501        1.53123627093075
O            3.54853663326528        1.35565675782872        2.79754612206880
H            5.25404650049655       -1.50909017099920       -0.63834941088587
H            5.36433055356409       -2.11352126644555        1.04047549390101
H            6.64857593547144       -1.04944970170735        0.38820891304146
H            3.25195953405006       -1.06233520936140        1.49868611006749
H            1.40960173933394       -1.46977972994938        0.05676867177902
H            1.76894794258040        0.25188796848201       -2.43922338684202
H           -0.11028633334569       -1.02884144332900       -3.20800430935981
H           -0.56947139094842        0.03923158159314       -2.08953900466847
H            0.91633136109105        1.50143930403797       -0.46568352407331
H           -1.04850166722413        2.13592607005306        0.08947462303754
H           -2.25026434325278       -1.18827532398985       -1.13093851160753
H           -2.99329868395008       -0.07033068915901       -3.25891124290647
H           -4.23100302309667       -1.16338253503548       -2.55734550947697
H           -5.09140477621975        0.92211011515550       -3.17372455752586
H           -4.66948769803563        0.29565076860809       -0.02877749403585
H           -3.85686725739762       -2.41086676187505        0.05143889501608
H           -2.37486147601777       -1.01880531151301        1.52933031107021
H           -4.69919500829556       -0.95705029160923        2.33795930057313
H           -3.22021791700678        1.89260649353136        1.16547193849691
H           -2.33403917791186        1.22950913027954        3.28141992581276
H            1.20324142769341        0.20311320368203        2.25912343136771
H            0.04871100213175        2.09884464738476        2.31688428983201
H            3.31736399742661        1.95510005258272        0.91147913665103
H            3.27890788935514        0.66068805927527        3.41707681272651
