48
 energy: -84.736218572421 gnorm: 0.000511281665 xtb: 6.7.1 (edcfbbe)
C            5.43243402455436       -1.42959386851517        0.55137701734383
O            4.85719315349364       -0.19961661649289        0.98752009844872
C            3.47470082003309       -0.16874789929085        0.93377292018296
O            3.05451812513848       -0.28264203593088       -0.40067121994732
C            1.65759571449415       -0.45549575179490       -0.55671413690932
C            1.48071615231447       -0.57216162683583       -2.06348517598714
O           -0.03654862938096       -0.76957203696308       -2.32537696444484
C            0.86505663914952        0.69923700249079        0.12655216118464
O           -0.45124831720896        0.21300235193240        0.39504022333373
C           -1.50899592137741        1.10182682368364        0.18224465639251
O           -2.13207024260892        0.83995017900549       -1.05299011730762
C           -2.90283633233348       -0.36709994641751       -1.13214782436525
C           -3.63843839827228       -0.29776505984075       -2.47686781967321
O           -4.26394988485392       -1.53737831575297       -2.71117210155188
C           -3.89883474100510       -0.52711843885844        0.02453267639976
O           -4.47824870997669       -1.80692824053126        0.03728010933385
C           -3.17353757922460       -0.33929709238325        1.35985417357575
O           -4.06457371686059       -0.38280149988034        2.44732196639342
C           -2.49830146938227        1.03051819453967        1.35505287219718
O           -1.80018789863334        1.28229778391518        2.54070902332655
C            1.45721575333450        1.21680837902380        1.44815455179366
O            0.99606834405526        2.53879203876442        1.61822810727040
C            2.99263935628432        1.17361071002838        1.49736658620556
O            3.45823589975615        1.44828451205789        2.79172117231453
H            5.15486464970270       -1.63087555842808       -0.48414804431980
H            5.09581302507803       -2.25071391314426        1.19135517488210
H            6.50529780354251       -1.29103192667502        0.64294844303452
H            3.03842503521727       -1.00907468442802        1.52346600134950
H            1.34293325974736       -1.38680402848405       -0.05152953776391
H            1.70559391513664        0.43794293941520       -2.46950404105989
H           -0.06872202547391       -0.99048572722057       -3.27788845546787
H           -0.59643901011559        0.01757471775952       -2.12848728280425
H            0.82209308507169        1.55987844316971       -0.55613192347814
H           -1.13328590576520        2.13023804794106        0.10641733053332
H           -2.23870167102058       -1.24294020761235       -1.10836101390455
H           -4.37343017703928        0.51542703260063       -2.42783346697131
H           -2.91502257632288       -0.06248817250765       -3.26326658742832
H           -4.68787976110074       -1.52914223581292       -3.58111388313672
H           -4.68258372804205        0.24623999896370       -0.05152068571326
H           -4.71349103029671       -2.05280053589105       -0.87554982465938
H           -2.40097003651355       -1.11614178186930        1.46378378223966
H           -4.59436161271605       -1.19056697942880        2.37001230912233
H           -3.26966557529805        1.80188626402167        1.19472364163923
H           -2.38964059000073        1.05856568647413        3.27968142225552
H            1.05809682238743        0.57755876857928        2.25290937629382
H            1.40456913427955        2.90726539925745        2.41684642242729
H            3.40187543286088        1.96281436473223        0.85735163750793
H            3.31954239673313        0.68266554527305        3.36864022248024
