48
 energy: -84.734323718400 gnorm: 0.000844245223 xtb: 6.7.1 (edcfbbe)
C            5.62641787893312       -1.12178256682514        0.29820354511881
O            4.93770910679089       -0.02112209103674        0.88836091517361
C            3.56221083446899       -0.16677177630698        0.92063380495430
O            3.07153781402676       -0.20172964324249       -0.39280576781985
C            1.68357542863196       -0.46292448009923       -0.50727298274454
C            1.48046754323158       -0.51300602201930       -2.02042051347346
O           -0.03608244856476       -0.61551653894012       -2.28188335769019
C            0.87584016569562        0.62419357413777        0.25766288605461
O           -0.47076400858013        0.17554807874846        0.43302846652370
C           -1.48020147958211        1.13012230700184        0.25730310104954
O           -2.05606610901825        0.98603929548435       -1.01665273213433
C           -2.82227542329654       -0.21792224752145       -1.18657934439712
C           -3.38135769085756       -0.20248785509412       -2.61837445073522
O           -2.49361775318120       -0.77005947126345       -3.54715217551903
C           -3.92814453737287       -0.32495133152646       -0.13395367234207
O           -4.61335731286015       -1.52851431022429       -0.35059203292689
C           -3.28612579779054       -0.28545758574926        1.26067887008480
O           -4.32066805544869       -0.39561989974749        2.21223079686213
C           -2.52458471925144        1.04171409289961        1.38049622202904
O           -1.84777433542180        1.18236920873274        2.60683894245538
C            1.43642923960512        0.87701142984025        1.67523609261801
O            0.86862263927548        2.03329467788377        2.24737439869493
C            2.96134128897057        1.02996975182460        1.68006602733045
O            3.47907980999660        1.16459451266225        2.97172298126342
H            5.30596622905220       -1.25853283014575       -0.73575496029165
H            5.43482291447687       -2.03529088804468        0.86898221316536
H            6.67854856866980       -0.85815588139316        0.34422385713943
H            3.28264553797911       -1.11605462630241        1.43729205122634
H            1.44361559808063       -1.43265797950254       -0.03649348395339
H            1.76684892654095        0.49938916705283       -2.38272321835423
H           -0.13375767404035       -0.76813495690772       -3.24511291569962
H           -0.56650062508705        0.18447041820026       -2.05074943212503
H            0.90702559458094        1.56692164991903       -0.30329027249497
H           -1.05393174125034        2.14325511198132        0.25833144102713
H           -2.16548101749988       -1.08869566411000       -1.05457149192086
H           -3.52600780284788        0.83861339685892       -2.91506290806459
H           -4.34460320658636       -0.71802044241301       -2.62014578658915
H           -2.57030852439376       -1.73388527291532       -3.50936178012154
H           -4.61593982433541        0.53072958522165       -0.22450970089691
H           -5.22392338698516       -1.66962575681718        0.38972437740899
H           -2.57079369700495       -1.11213023195834        1.35181408402704
H           -3.97063695282265       -0.72908379294521        3.04933385974487
H           -3.23425855385034        1.86634046146683        1.23073945872294
H           -2.48315742832033        1.42663820395789        3.29713912974835
H            1.17813839009251       -0.00690301233660        2.28075651614453
H           -0.04907573944616        1.83169385947119        2.51096418848600
H            3.24502420132356        1.94575525219697        1.15314571538657
H            3.24636513742563        0.39125609592194        3.50792606642344
