48
 energy: -84.744713145862 gnorm: 0.000952446559 xtb: 6.7.1 (edcfbbe)
C            5.64114485136892       -1.00320856495065        0.30237513976061
O            4.89659908759109        0.12244875243678        0.76097843851611
C            3.53492037029170       -0.08866536374531        0.84231245299118
O            3.01411341785922       -0.11601711938411       -0.47000115896274
C            1.62279158033846       -0.35241336231533       -0.55157337023147
C            1.26408951600441       -0.28133752113030       -2.04640590033415
O            1.68207336879193        0.93133813917185       -2.61256061768803
C            0.81844719526611        0.69912212838064        0.22649429772131
O           -0.50443120038505        0.20245294643420        0.38651803432250
C           -1.55848351933053        1.12195985541788        0.24227138440376
O           -2.15671271336936        1.04243621544088       -1.01373969076055
C           -2.76930653241207       -0.21575558112115       -1.30453650656992
C           -3.25529584789035       -0.09810337047455       -2.74878335024379
O           -4.03360598544592       -1.40447697365995       -3.06899848992295
C           -3.85625837704594       -0.50661135486442       -0.23567688200662
O           -4.41547899071080       -1.77909431007611       -0.49155729563093
C           -3.24683310134412       -0.46568310801794        1.16573110477647
O           -4.27926976955681       -0.69736066056433        2.09709029040495
C           -2.56623101910822        0.88598861387366        1.38254770163333
O           -1.95707527585134        0.87637697812524        2.64877831162624
C            1.38935427592132        0.95157476506101        1.63322277428799
O            0.78735626938609        2.07887210638898        2.23177728276984
C            2.91956787559620        1.05994506939206        1.65283255088258
O            3.41192479409914        0.96281377401927        2.96215570026006
H            5.31864134453909       -1.29553754766571       -0.69838357183253
H            5.51937065949578       -1.84309824051440        0.99221745270631
H            6.67655465618729       -0.67602349602026        0.28696680864131
H            3.30666482872874       -1.04761129395469        1.35143074222746
H            1.37803111807288       -1.34367405547070       -0.14332856839149
H            1.71952379404630       -1.13167575950491       -2.56573535012399
H            0.17926301905244       -0.31568143766104       -2.15983915469551
H            2.64442720022287        0.99478124866206       -2.51662663393314
H            0.81128189122312        1.62872254826984       -0.35775962003776
H           -1.18279768320388        2.15248989116421        0.29925923502069
H           -2.00856509449678       -1.01055039817091       -1.21001693059499
H           -4.07096654086920        0.65569535681161       -2.73980356978402
H           -4.40135411565985       -1.78854411815269       -2.22980794258495
H           -3.38526957469755       -2.02221134666422       -3.45971237359696
H           -4.63690406044164        0.26931633697305       -0.29624044240026
H           -4.99780784685734       -2.01236614435720        0.24720813163094
H           -2.47789394253184       -1.24949867747192        1.24817088616266
H           -3.93139576242838       -0.53716276598432        2.98588206246351
H           -3.32797965675767        1.68181235540156        1.32903380578291
H           -1.19961747019052        1.48541738715627        2.66921565546424
H            1.09553373069483        0.10386504158019        2.26369497802246
H            1.08073004404564        2.88432007455432        1.77779788604939
H            3.24446197926625        2.00116341584144        1.18260588460539
H            2.95671521602122        1.61213254915709        3.52216046060025
