48
 energy: -84.736950029343 gnorm: 0.000664902769 xtb: 6.7.1 (edcfbbe)
C            5.61913880741508       -1.02385543625414        0.21985961532279
O            4.89740612234701        0.10704945976710        0.70361525506271
C            3.53392298845471       -0.08054543257213        0.80547806222505
O            2.98699984890654       -0.19086871542426       -0.49263709570845
C            1.59009210618812       -0.41382279530515       -0.53562545798761
C            1.20313936407785       -0.40413496967552       -2.02427716186957
O            1.60723708439346        0.78149251082598       -2.65335188347066
C            0.80747583680269        0.66945581074909        0.22266379495729
O           -0.52559876192998        0.21235180486102        0.39283741162112
C           -1.54459332319966        1.17129079498119        0.22892576298838
O           -2.13695985307876        1.08434450423738       -1.02637152579163
C           -2.78611417296535       -0.16422362178774       -1.27515210928559
C           -3.24243068501547       -0.10298157456641       -2.72940587273334
O           -3.92359435247601       -1.48368937637045       -2.98257984774061
C           -3.90881935705965       -0.35761155545355       -0.22350348006681
O           -4.60098645178232       -1.58102107155681       -0.41140388417416
C           -3.36012170667147       -0.27563815349954        1.20610936138686
O           -4.40638855043118       -0.28822074223793        2.15052514974720
C           -2.55390500629683        1.01219878527718        1.38497927129195
O           -1.89522698931817        0.97813590266258        2.62296776379942
C            1.40572713580846        0.93567375866296        1.61050993412259
O            0.77640859239602        2.07037007454421        2.16470444002869
C            2.92556578789585        1.12857180231000        1.53142057947292
O            3.46515621211979        1.34868278261898        2.80436388059463
H            5.28839279878060       -1.29070397947262       -0.78442911882740
H            5.48410675049010       -1.87590430495602        0.89219972856630
H            6.65975138916369       -0.71472960546363        0.20690530614879
H            3.30146530596443       -1.01227713957039        1.36901810952931
H            1.34669083571058       -1.38816284400822       -0.08618068054894
H            1.65131150488248       -1.27613751176647       -2.51449581733196
H            0.11694815504090       -0.44659046221030       -2.11778203566009
H            2.56948693944629        0.85760896009607       -2.56853443723651
H            0.82375996154498        1.59455726581836       -0.36626975393871
H           -1.12109478063855        2.18384068522970        0.27214807700555
H           -2.05429957078273       -0.98067905871733       -1.14245453243915
H           -4.08204842227565        0.62705186317711       -2.75332382755396
H           -4.65247848189525       -1.65145253510713       -2.33405213398824
H           -4.25636141333702       -1.44288300705568       -3.89955442635848
H           -4.65871390410716        0.43289782569962       -0.35239115720751
H           -3.98573159131796       -2.31337336038655       -0.24968408649808
H           -2.67508918345103       -1.12047782491598        1.38999897115304
H           -5.03168691056447       -0.99014750863882        1.90656324194716
H           -3.25459151768725        1.86261063873767        1.34765148370216
H           -1.10010315451739        1.54106848675963        2.58039436526278
H            1.18360825750967        0.05772598842369        2.24063220418247
H            1.35126992445189        2.41740981688477        2.86800628829679
H            3.15680990395875        2.02642101517326        0.94925845205792
H            3.49587253281938        0.52321008111783        3.31049679265404
