48
 energy: -84.852443451774 gnorm: 0.000916390673 xtb: 6.7.1 (edcfbbe)
C            5.48827171826147       -1.20332860196492        0.11594810757096
O            4.86543016849404       -0.04081616510057        0.65851912617893
C            3.49391085674878       -0.13825943935208        0.78944342556518
O            2.91111261479312       -0.23361801585241       -0.49330420013805
C            1.51843027093514       -0.45117068687139       -0.46076226703008
C            1.05272424080787       -0.61227481013862       -1.90910490908584
O            1.22337260638516       -1.95621221354640       -2.28658451168831
C            0.78089004379205        0.69597974871227        0.25150159484671
O           -0.54479448964751        0.24875279910701        0.49566858921241
C           -1.57921164942645        1.17690404674342        0.31648932739421
O           -2.20732433744277        1.00108735869692       -0.92461122929600
C           -2.81932217315961       -0.27886381131891       -1.10247976399439
C           -3.40351550617481       -0.28055385157153       -2.52268214176352
O           -4.48491214814544        0.60327855606273       -2.66189827032155
C           -3.89371795285802       -0.51955980804681       -0.02816620858327
O           -4.42927992615691       -1.81933543305851       -0.09364553675455
C           -3.25309282778814       -0.36366713665657        1.35550763047167
O           -4.20683621473435       -0.46583894959925        2.38468785423356
C           -2.59889562043357        1.01629158727117        1.45905727312277
O           -1.94455721956381        1.19909104998805        2.68082233421893
C            1.44075899120884        1.09899641732341        1.57801322053431
O            0.95141028596238        2.37427292156931        1.91371309136305
C            2.97963010935497        1.12545320150453        1.49369299232883
O            3.54131006912099        1.31985781140452        2.76245632212931
H            5.09850417588911       -1.41461869390198       -0.88071033293895
H            5.31777523239291       -2.06456327589508        0.76850390555603
H            6.54673729595919       -0.96642842198270        0.07009754228686
H            3.21397802979467       -1.04339862101368        1.37519121935994
H            1.29882898977085       -1.38456567351522        0.08188327856100
H            1.66120940759786        0.05698814820148       -2.52659823629827
H           -0.00244854980600       -0.32083051842499       -1.97616180914791
H            1.09096151973565       -2.04437400578778       -3.24194962311959
H            0.77186955771467        1.57893351884756       -0.40020832957590
H           -1.18919526911608        2.20046059441906        0.31838381994400
H           -2.05975527144962       -1.06763157600867       -1.01349897280389
H           -2.60065686621387       -0.02610975073644       -3.22383311287339
H           -3.78023633025373       -1.27604049532292       -2.76072959638433
H           -4.16377070433775        1.50519232726116       -2.52298407564010
H           -4.68498938155211        0.23538565362337       -0.13537093628060
H           -5.04914637212469       -1.88038549265243       -0.83339711400466
H           -2.47493418787245       -1.13245728141290        1.47394886120548
H           -4.69524099206411       -1.29428883430541        2.26351783051581
H           -3.37982981227689        1.78220449385875        1.32291376242694
H           -2.56054035056918        0.94259733996007        3.38649835225713
H            1.12948636265375        0.36432703108361        2.33785329431231
H            1.41219460288031        2.68450604909346        2.70971627917964
H            3.29368090911991        1.98687666035748        0.89441383033190
H            3.45585814479461        0.51675633534929        3.29775228622797
