48
 energy: -84.714859709434 gnorm: 0.000372145064 xtb: 6.7.1 (edcfbbe)
C            5.60283140563654       -1.26827696020981        0.38457900569472
O            4.96759270672063       -0.07890800680439        0.84673768399125
C            3.59039735886603       -0.15122358114465        0.89943908995826
O            3.09417333551333       -0.11537784731684       -0.42301180264492
C            1.69178002072708       -0.24343205678722       -0.51673256344063
C            1.36066417875142       -0.16970566724786       -2.01623724678902
O            1.80413773103173        1.03179706840975       -2.58582426657905
C            0.94659031357852        0.86353781576560        0.25090233660424
O           -0.39774710297705        0.41305426779490        0.39333524166346
C           -1.41821588307177        1.35637896918804        0.23753896978559
O           -1.99756126231521        1.29310717443531       -1.03521309931172
C           -2.61351985644397        0.06773180858708       -1.38940037776332
C           -3.77878767297927        0.12608240780294       -2.19234745550727
O           -5.47615990396535       -2.23171379146839       -2.53443239214194
C           -3.69275635365427       -0.52696917461526       -0.32685751456264
O           -3.83816933746394       -1.89193542037433       -0.44644043511554
C           -3.07192313611349       -0.30145579601004        1.07927983772493
O           -4.04811990184501       -0.52116565639264        2.05670586797090
C           -2.51511730930160        1.10694912599728        1.28580243143336
O           -1.97219969456881        1.25987623665436        2.56243551291675
C            1.53913617355605        1.13527760783089        1.64662460866334
O            1.11187876599616        2.36901918300382        2.16995969174972
C            3.07547864336379        1.05382698903207        1.69231616912003
O            3.52049828151609        0.92107505459945        3.01517208148042
H            5.28102940293369       -1.50595246699610       -0.63082899218126
H            5.37342604564131       -2.10338615892309        1.05222709969352
H            6.66668658293019       -1.05201736013538        0.40426472818880
H            3.25436696964782       -1.08454920636459        1.39501708301496
H            1.37040971365291       -1.21186852852878       -0.10555093616658
H            1.81162677266877       -1.03120188576139       -2.52115903990171
H            0.27859914331456       -0.19457256218410       -2.14964718605315
H            2.76600373587087        1.08064228642294       -2.47682655455298
H            0.97560365200546        1.78195206450207       -0.35114666041468
H           -1.03870855324749        2.37838109757673        0.34263572119209
H           -1.88928248860590       -0.73356321982518       -1.53366349508200
H           -4.16358393795911        1.15738564473186       -2.19827732136549
H           -5.11283801978493       -1.41648353751017       -2.92293771119116
H           -5.27662938791572       -2.94961392342171       -3.14475498027562
H           -4.65496205112903        0.01164228374233       -0.33932079712503
H           -4.48007432548009       -2.12376555592652       -1.17649236676211
H           -2.24418967149246       -1.01797477145644        1.17545324772272
H           -4.35536954040326       -1.43966027426687        2.00269320263633
H           -3.31897686704195        1.84209137380562        1.11306759899771
H           -2.61959595218077        0.93170656000484        3.20823188477857
H            1.12910787665529        0.38086287947670        2.32786241310662
H            1.46773385249443        3.09453298336351        1.63399455961456
H            3.51272867348221        1.95189656134705        1.22712673510218
H            3.09428988230471        1.60522700142419        3.55662526453848
