48
 energy: -84.734023917830 gnorm: 0.000978394277 xtb: 6.7.1 (edcfbbe)
C            5.45902649559125       -1.35638902619722        0.41131944784676
O            4.85827379010261       -0.15887377978049        0.90042460174471
C            3.47489241210286       -0.16526389238934        0.87133201133517
O            3.03326221757442       -0.26552270656291       -0.45705734994476
C            1.63863867025841       -0.46420443153041       -0.59890648645268
C            1.45921185375844       -0.54507533644418       -2.11384023505933
O           -0.04213271574011       -0.65674817428960       -2.44294199303689
C            0.83096708377761        0.65517256985517        0.12533187232965
O           -0.47717378398647        0.13918767628072        0.39440096863684
C           -1.54570441880466        1.02668593137881        0.21501081618163
O           -2.16691903265266        0.78250854577704       -1.02161472335565
C           -2.97303273678088       -0.40112657350699       -1.11721300609605
C           -3.67111508194078       -0.33190021418382       -2.48567288971694
O           -4.45453672550392        0.82559798371075       -2.61407741332257
C           -4.00287109331814       -0.51715699685901        0.01042276244012
O           -4.61230194352110       -1.77647955310378       -0.12159084227527
C           -3.29371322199989       -0.37889141576325        1.36168697186366
O           -4.19193497677438       -0.47902294526240        2.44030261088041
C           -2.53024652981221        0.94689862414716        1.39323264581597
O           -1.81240656640081        1.11077189235896        2.58409243999621
C            1.42864976406653        1.14457189208530        1.45394589026802
O            0.92631313280025        2.44147440643724        1.68428978571513
C            2.96524347804510        1.15161403403963        1.46894935617368
O            3.44736116259999        1.42033765786765        2.75841640087872
H            5.17501906754639       -1.52484070059660       -0.62824481407137
H            5.15061489135129       -2.20953724015417        1.02302153525016
H            6.52907839545944       -1.19445283770820        0.49653038822448
H            3.07433983021229       -1.02912072871908        1.45366015329369
H            1.35910066145062       -1.41370065644321       -0.10264819233448
H            1.71294025632791        0.45988834037122       -2.50397589063162
H           -0.63723383421553       -0.08858280666167       -1.89582035765659
H           -0.25818317954944       -1.60147519275198       -2.32237984519164
H            0.76600035761988        1.53101527323397       -0.53544292103651
H           -1.16895896721029        2.05584607224179        0.15577394238881
H           -2.35009663264547       -1.30187279034079       -1.06023316228719
H           -2.92208891839438       -0.38020911930519       -3.28268618985754
H           -4.35066636589981       -1.18064157476188       -2.56607539061763
H           -3.86844834166550        1.59491212031950       -2.57571461085377
H           -4.75188698337865        0.28472802054101       -0.09836878842956
H           -5.08535432140944       -1.98268831449614        0.69913191103132
H           -2.58488978608352       -1.20417336556954        1.49141531675453
H           -4.86807966069929        0.21238592392132        2.37168232042093
H           -3.25000369081478        1.77551583916396        1.26795792822637
H           -2.35087825291330        0.76036666575633        3.31346005723563
H            1.07011482132515        0.46277111055703        2.24309303072773
H            1.36877634525475        2.80815656943859        2.46587591992592
H            3.33390243414078        1.96411774092430        0.83350462847324
H            3.37835065079330        0.63104549723146        3.31532738904731
