48
 energy: -84.853885096852 gnorm: 0.000801081922 xtb: 6.7.1 (edcfbbe)
C            5.76145884310598       -0.81459117857018        0.10159200382833
O            4.97050250930532        0.22204768888653        0.67963515461602
C            3.63000680460535       -0.08874689549684        0.81595697380804
O            3.05283008292446       -0.24125601228338       -0.46203589694660
C            1.68022747048752       -0.57397036865425       -0.43815010025969
C            1.23588378057729       -0.74372336721532       -1.89791467401160
O            1.76100238453106       -1.89390658139101       -2.49926337020275
C            0.87033149964703        0.52074479117690        0.27694611459098
O           -0.47506437615566        0.09998462324095        0.42553604520027
C           -1.46246779020229        1.08472530377501        0.21772047289529
O           -2.02996927184491        0.98945818702041       -1.05409163192105
C           -2.77262821387421       -0.20713213656352       -1.28373168309630
C           -3.31189079840238       -0.14668242115365       -2.72241235890678
O           -2.43802350010629       -0.70839632819464       -3.66854063042234
C           -3.91968634713336       -0.34971182831139       -0.26004060797074
O           -4.67869360122246       -1.50071144609742       -0.51096728721679
C           -3.32684245293789       -0.31893713042851        1.15302187670818
O           -4.36623578019048       -0.40538941150608        2.09360703085059
C           -2.51777964482360        0.97307064856091        1.33024699725026
O           -1.93834872353533        0.96439183596810        2.60967322140455
C            1.45926232388627        0.79789761081308        1.66869118604380
O            0.77251667702114        1.88958469544276        2.23681727061567
C            2.96034255599241        1.07240727981149        1.56645083987893
O            3.45594352361553        1.21244835613071        2.87020383685038
H            5.39793768951989       -1.05889561036748       -0.89720651896736
H            5.73445881712634       -1.70575231323753        0.73489932915458
H            6.76964796394841       -0.41461405794392        0.05239589765976
H            3.49825929064700       -1.03027969680216        1.39240669947150
H            1.53852361405400       -1.51745338602775        0.11452029559867
H            1.62484031471511        0.09736194403721       -2.47473372369970
H            0.14127419092105       -0.72788064013460       -1.94221498985857
H            1.41685039541798       -2.68547520250926       -2.06033640773206
H            0.91723742455148        1.43983576314820       -0.31953462764491
H           -1.01072719448117        2.08463036632905        0.25043621350683
H           -2.09727114671696       -1.06851907722364       -1.17502968044288
H           -3.42272895229361        0.90613432048232       -2.98955954975679
H           -4.29129162530114       -0.63383808973039       -2.74659903913616
H           -2.54301930771633       -1.67005645310568       -3.67727056482788
H           -4.60963533932668        0.49416885831112       -0.37294609904640
H           -4.25558583310172       -2.27226571872876       -0.10678804593413
H           -2.63209292449147       -1.16719332793348        1.27804596983152
H           -4.00382459359212       -0.18665816645958        2.96582586996823
H           -3.20258610734053        1.83110661487914        1.23246585641272
H           -1.06300503305875        1.39464152611613        2.57853255596075
H            1.30894249054192       -0.09452403181315        2.29568836618237
H            1.27225495598230        2.17810492215808        3.01897000276475
H            3.12862438978732        1.98656165967662        0.97818325217040
H            4.41443057441351        1.34831286918489        2.83578823732230
