48
 energy: -84.737869196037 gnorm: 0.000721365955 xtb: 6.7.1 (edcfbbe)
C            5.48625568159112       -1.35765791488912        0.46149278213645
O            4.87470559434416       -0.15428880678772        0.92180460291280
C            3.48866522414359       -0.16579181080242        0.87525145390073
O            3.06209154841024       -0.26763757402733       -0.45543093903254
C            1.66447741207042       -0.44856191901582       -0.59632152006425
C            1.46922472219000       -0.53556577477529       -2.10318093968538
O           -0.04454332324571       -0.76235199176952       -2.34579928531931
C            0.86790395317605        0.68383065969057        0.12091955379303
O           -0.44262226447476        0.18133370544895        0.38457172144821
C           -1.50826168734458        1.06738743259052        0.19958226472418
O           -2.13325449283028        0.82538247591549       -1.04146805887111
C           -2.85846976794452       -0.40830969637770       -1.11668237233535
C           -3.50106370257704       -0.50354575730742       -2.50565834037354
O           -3.58002228875131       -1.87000151202301       -2.83495023523976
C           -3.90589320663500       -0.51671013495102       -0.00729820345741
O           -4.66009122026135       -1.69843044017404       -0.08310468942556
C           -3.19411373469392       -0.39441771750432        1.34832677474771
O           -4.10445283468466       -0.44701681079621        2.42005899341097
C           -2.49106952817774        0.96344885132609        1.37816291751635
O           -1.77756369410285        1.17170335755615        2.56347438502338
C            1.46377277461571        1.17797456228839        1.45019912624776
O            0.97859228304396        2.48500805878525        1.65710449735868
C            2.99456461094603        1.15942167370921        1.46518698373781
O            3.41642852977708        1.34474261600783        2.79093687060600
H            5.20080810298718       -1.55389502693410       -0.57265395753563
H            5.18521469426538       -2.19716514033158        1.09469495778240
H            6.55527557793866       -1.18455446955335        0.53981762725026
H            3.08204411889799       -1.01794685108051        1.46422054444361
H            1.36588686535384       -1.39264263631570       -0.10600008906670
H            1.66647976032187        0.48786586628142       -2.49042604724354
H           -0.61723249748944        0.01217677285968       -2.13679288194154
H           -0.09357014611295       -0.97905049385360       -3.29827672384691
H            0.81324092013068        1.56022374438118       -0.54096749521528
H           -1.14162619474221        2.10007976529389        0.14663598475958
H           -2.15680450003505       -1.24905396512965       -1.00165142549996
H           -4.49390826097098       -0.04262238734483       -2.48005615268100
H           -2.87908663326393        0.04688120091736       -3.22066335267254
H           -4.06791219305713       -1.98009014157827       -3.66270200446328
H           -4.62118338848032        0.31347405355787       -0.08731873399151
H           -4.15171211358838       -2.39285985961943       -0.52813248177108
H           -2.43664286140698       -1.18713642483760        1.45354557780573
H           -4.73926095321771       -1.15867345155982        2.24044860071512
H           -3.25304495601404        1.74989665532688        1.24894067834845
H           -2.36810673380286        0.95787166186122        3.30385090218543
H            1.10552892615672        0.51128038692530        2.24897847598936
H            1.30878061173562        2.80242968308197        2.51109614234066
H            3.37340155156339        1.96396512219492        0.81568104661863
H            4.38017571258867        1.24725039313037        2.82619445630981
