48
 energy: -84.597872090243 gnorm: 0.000255222939 xtb: 6.7.1 (edcfbbe)
C            5.55025916420759       -1.37133431637466        0.69302114208529
O            4.94710624796626       -0.17316460225719        1.17815739581931
C            3.56894253677123       -0.14891512878637        1.06802267098436
O            3.20752566125466       -0.17829262225708       -0.29009964471146
C            1.82214448315870       -0.34519322069289       -0.51591645471246
C            1.68809372667498       -0.32998546926730       -2.02374812901081
O            0.22960696183561       -0.52062649328780       -2.39110866686872
C            0.98439883936211        0.75078196534705        0.20917584251064
O           -0.32946959805441        0.22174788890167        0.37411252728798
C           -1.39586274437746        1.10634846288511        0.16844689346164
O           -1.93677481711371        0.91262350112638       -1.10852592254294
C           -2.68036719953514       -0.32017724394668       -1.34832608502320
C           -3.44521395471573       -0.28934492004278       -2.56949051812469
O           -5.69338673926067       -2.01351825812510       -2.53964314764964
C           -3.75969864912101       -0.60969730190658       -0.23220572187218
O           -4.23521613897605       -1.90731953928922       -0.29262740174627
C           -3.08209134516986       -0.45444181249456        1.13685691458743
O           -4.02655671437423       -0.59496463336870        2.16628499958774
C           -2.45387586267896        0.93014953170095        1.26439330816739
O           -1.84413426322307        1.11842691640219        2.50843685191464
C            1.51190634162399        1.17416536687525        1.59008600066088
O            1.02068961109160        2.47204749289361        1.83844337473241
C            3.04574674960152        1.14951443525370        1.69523281069993
O            3.45672448637883        1.34704107193367        3.02094424618529
H            5.32809944616193       -1.50493964845121       -0.36647156542806
H            5.18545605468786       -2.23322596908954        1.25971198982349
H            6.61634665801372       -1.23813435575449        0.84861751953841
H            3.11695571382677       -1.02929636201879        1.58206542179566
H            1.49109488770991       -1.31261298906526       -0.09917528494025
H            1.98778494029029        0.66684128207655       -2.37879758224441
H           -0.37415148597314        0.21964540239800       -2.12619977681887
H            0.23277254349926       -0.63196856969378       -3.36509971370187
H            0.95831408060906        1.65916076982049       -0.40906496647991
H           -1.03987115347322        2.14477938870313        0.19129391873564
H           -1.99940596610000       -1.17933010926997       -1.28452276178055
H           -3.46308003384793        0.73210478590324       -2.97604571649061
H           -5.00041467053765       -1.44680741433344       -2.94464383026217
H           -5.67594873302096       -2.85043067592906       -3.01706772643772
H           -4.56739893753917        0.13352523958199       -0.31122912500957
H           -4.85511015725890       -2.02272903072278       -1.06394829460457
H           -2.29221935931613       -1.21519569875053        1.22759267268422
H           -4.49689663297259       -1.43343240649181        2.03568907558444
H           -3.23847951126244        1.68852549196688        1.10134352195562
H           -2.47266302955336        0.82899548671474        3.19017904836782
H            1.09310652732113        0.47038190106420        2.32821769024672
H            1.39500767786807        2.78867003988725        2.67512403214421
H            3.46541084287458        1.98415800986969        1.12328358361941
H            3.31847354993640        0.54101154480086        3.53975130828224
