48
 energy: -84.736082434871 gnorm: 0.000601625877 xtb: 6.7.1 (edcfbbe)
C            5.46773214650376       -0.99737229374090       -0.07008264118544
O            4.76519205962968        0.08880878352725        0.52356068977903
C            3.41721233364742       -0.15908065162191        0.75646524870798
O            2.75021203437268       -0.34913100461600       -0.45132187409692
C            1.30406687764676       -0.65493701454707       -0.28950955407284
C            0.60111366240807       -1.00856579062144       -1.56816944396064
O            0.67632814766178        0.11366362611895       -2.50925571096477
C            0.67409648849897        0.56286256761162        0.39886169612061
O           -0.69791251769293        0.29350963238198        0.57112213347570
C           -1.60833709789259        1.33520876736978        0.34902944571817
O           -2.18432227616683        1.24330631432095       -0.92911293213775
C           -2.62660525866042       -0.08038649076280       -1.19414206510430
C           -3.06737086672881       -0.16815684406569       -2.65085357896794
O           -3.40505444237722       -1.53207464155276       -2.96881915147035
C           -3.78292658645162       -0.42748913196980       -0.24247473946632
O           -4.18591727421460       -1.74901346529071       -0.52640406665597
C           -3.32718104508285       -0.25334087918695        1.21159752217908
O           -4.44893441564589       -0.45497685026278        2.04126336873051
C           -2.72421281674642        1.15496101836169        1.39886535558783
O           -2.25926538895727        1.32328004157417        2.71633675449804
C            1.34453721189068        0.81429342884452        1.74824072764299
O            0.73530870712015        1.91404171146760        2.38362996396663
C            2.84531462865923        1.03754414483244        1.53415544775043
O            3.49700625678246        1.27512194127524        2.75300308937291
H            5.02523339635660       -1.25735041291365       -1.03374754605964
H            5.44170355741060       -1.87015866690931        0.58984206311848
H            6.48636544009843       -0.64480685661711       -0.19908544073318
H            3.30156175844213       -1.08335774147309        1.37761740613201
H            1.24683990663002       -1.51997899812378        0.39226921570166
H            1.22064416104284       -1.84234570573669       -2.02691813146141
H            1.59606531121503        0.38684089631029       -2.62993843791805
H           -2.24826498227723        0.17342629306619       -3.28126963927321
H            0.80962540676026        1.43532944880737       -0.25275120667746
H           -1.14316373872618        2.32351173928751        0.41901643862001
H           -1.76753891321494       -0.76042925652902       -1.04126027175910
H           -3.95512455720959        0.43820434377107       -2.83101270030116
H           -3.90416408864704       -1.88153364650559       -2.14913437093915
H           -2.58126815441270       -2.05891481225131       -3.06753404236128
H           -4.61870048120820        0.26905317271907       -0.40871792906980
H           -4.84591630021219       -2.03150515949607        0.12342854883156
H           -2.54290720463936       -0.99062343816090        1.43848783783069
H           -4.23384345117277       -0.14011320179855        2.92978375324135
H           -3.50376394863226        1.90779918073945        1.22308357608971
H           -1.29021291331573        1.31097126111032        2.71962558833084
H            1.20440998072863       -0.08685392724618        2.37116711003868
H            1.35993855754502        2.27772768977572        3.03348447513850
H            3.00216104658603        1.93627965479157        0.92776848529053
H            3.63674664280984        0.44399322331821        3.23068655473388
