48
 energy: -84.710155171704 gnorm: 0.000799208358 xtb: 6.7.1 (edcfbbe)
C            5.66766787553647       -0.69555407840059       -0.03035541565290
O            4.89219791820811        0.31215766130035        0.61536856848471
C            3.55305570856260       -0.01607571004063        0.78141484139713
O            2.94781661574207       -0.18238684142730       -0.46753152384657
C            1.58302529369268       -0.59551829298374       -0.37491596721698
C            1.13369801261082       -0.99262437174425       -1.77634276516047
O           -0.07836581628684       -1.87013055688403       -1.60443899915759
C            0.81439826320428        0.55410558702903        0.33336342556387
O           -0.54349421501085        0.18242578080306        0.50930458697196
C           -1.51078994785105        1.16738445788614        0.29578535929442
O           -2.10904322839768        1.05915586442508       -0.96821468985789
C           -2.71436873438753       -0.21970084673226       -1.19143538630187
C           -3.23115309284114       -0.20898897141137       -2.62142886092817
O           -3.93559772627304        1.03813265564120       -2.83378693565843
C           -3.83650916442030       -0.45364188298711       -0.17128735253396
O           -4.39767561036159       -1.71218828262515       -0.42827407847970
C           -3.24796596994949       -0.35159721702797        1.24382255520609
O           -4.30758833176910       -0.53237422875464        2.15830561062872
C           -2.58529466555823        1.03028492284353        1.39318519737215
O           -1.95422416553897        1.20668725495977        2.63927500226702
C            1.41075702812115        0.88080929855109        1.71328104492075
O            0.81476145291097        2.02856578534957        2.27686045945217
C            2.91294132047866        1.12198793175340        1.59483919553037
O            3.46714114039334        1.18034328213990        2.88197698503891
H            5.25468472870848       -0.91417593768292       -1.01597391010354
H            5.67512287018495       -1.60674273967961        0.57513633326872
H            6.66711811891405       -0.27881356907443       -0.11080359914838
H            3.45461030950391       -0.96397933633227        1.36277773496263
H            1.52545028145089       -1.48421549323228        0.28357778192758
H            0.69810159186632       -0.05846750744710       -2.24160215136754
H            0.19742114196720       -2.73903670856917       -1.92084082753758
H           -2.38278549389273       -0.30977823192292       -3.29638517171295
H            0.88932838447257        1.44244507970428       -0.30952292756235
H           -1.06695300041922        2.17133222820148        0.32400137211575
H           -1.96092605302732       -1.01135406084345       -1.08778339647292
H           -3.35051160825294        1.74888365976847       -2.47136621874849
H           -3.93188587650137       -1.03397461334285       -2.74335153428491
H           -4.11810245654246        1.17734663948398       -3.79398525366161
H           -4.60762644289340        0.32757348183912       -0.26962243764198
H           -4.99315518464439       -1.93763951514549        0.30175037097477
H           -2.47295410072646       -1.11877194525616        1.36433491158922
H           -3.96345698703255       -0.80580689557129        3.01806637272261
H           -3.34086201763166        1.81053471891856        1.23230649761642
H           -2.62665407645633        1.39401053110533        3.31227893892908
H            1.25520694286648        0.01192542539112        2.37020187817246
H           -0.08670397996397        1.79651795399551        2.56979896067816
H            3.07771707638855        2.06391413078759        1.05181738426621
H            4.42066689710575        1.33892046791155        2.79984817105702
