48
 energy: -84.851193338292 gnorm: 0.000688156363 xtb: 6.7.1 (edcfbbe)
C            5.62538426021684       -0.99580312217949        0.08960055719018
O            4.89790532800790        0.11097545923415        0.61873248691564
C            3.54902385044678       -0.12262555897531        0.79233833344299
O            2.94644340754949       -0.32795133536584       -0.46948114320379
C            1.56693961246850       -0.62261797996886       -0.41324119631887
C            1.08881613496657       -0.85956884883935       -1.85179774274441
O            1.53845227538074       -2.06598557694372       -2.40096875397223
C            0.79123949668785        0.53138847352093        0.24378340608673
O           -0.55626029555988        0.13652071739083        0.44746434515804
C           -1.54102800015388        1.10949943431015        0.19826948951288
O           -2.13888667094698        0.93440865712002       -1.05402171164588
C           -2.86856909165431       -0.28051970002343       -1.18809401788917
C           -3.47319819644128       -0.25685999587783       -2.60199610340358
O           -4.13785394999176       -1.44996914634417       -2.93038499085354
C           -3.96276854555738       -0.44172045668858       -0.11468293090551
O           -4.50882766766738       -1.73359486641211       -0.16906241385541
C           -3.37453365219727       -0.23498302519366        1.28580615330979
O           -4.43222664337210       -0.20085477905889        2.20884956966906
C           -2.57364896510244        1.07395646707859        1.33391344141123
O           -1.96830337232163        1.17472924834262        2.59733331265514
C            1.40958265629604        0.88905745604679        1.60219021109058
O            0.77458277198367        2.04755739419858        2.09435266281982
C            2.92576040479249        1.10333954241033        1.47773906302734
O            3.48476514297830        1.39847880457783        2.72692184420232
H            5.24613792793970       -1.26520949671358       -0.89705774668245
H            5.55088661678452       -1.85479285896091        0.76279773327066
H            6.65445924503691       -0.65665260569236        0.02266542818635
H            3.38108031702958       -1.03022443845092        1.41678667497519
H            1.40416664413289       -1.52919494322968        0.19310425065225
H            1.50211862669291       -0.07193109993044       -2.48457168852474
H           -0.00546966980985       -0.79677988338955       -1.86308005751388
H            1.19318967160139       -2.81386899049763       -1.89179086085598
H            0.83724673964019        1.40949968011177       -0.41144553023512
H           -1.08619262040139        2.10795489774490        0.15384785247347
H           -2.18191387030032       -1.13393660629279       -1.07881431364275
H           -4.22014652172999        0.53908040425451       -2.64786555114886
H           -2.67758449350238       -0.02292649407876       -3.31630110306841
H           -3.49227529350126       -2.14331990885426       -3.12940048872430
H           -4.74496173457981        0.31874340191651       -0.26311586936057
H           -4.87119953560894       -1.87285093323421       -1.06319835400062
H           -2.69589185550448       -1.07155126595165        1.50923536320856
H           -4.06389960668354        0.00026957547213        3.08279412112388
H           -3.27266995044715        1.91250124900147        1.18032950264095
H           -1.12300796161767        1.65348993141936        2.52355849630689
H            1.21568081465790        0.05029829229407        2.29113097579715
H            1.35620481830101        2.44514144240392        2.76490472818130
H            3.12530904820265        1.97530705053621        0.84575193096178
H            3.57042036183726        0.59674333709643        3.26432370293958
