48
 energy: -84.859133190794 gnorm: 0.000835489335 xtb: 6.7.1 (edcfbbe)
C            5.45221260877884       -1.20129553390530        0.16028970971703
O            4.80104291796583       -0.03606703770358        0.66153237201116
C            3.42682463509800       -0.14643078199301        0.77374689255556
O            2.85738969908298       -0.21684778214448       -0.51526136751338
C            1.45625675387324       -0.40144386923897       -0.49769225455660
C            1.00611969796511       -0.42860425955472       -1.96565978817755
O            1.31638381220950        0.76033313013100       -2.63890772078746
C            0.72609713107155        0.70704958707735        0.28036695041171
O           -0.59758201137819        0.24041156506657        0.50953551226172
C           -1.63028264297988        1.17884528745604        0.38698169202330
O           -2.27041668204752        1.07858613163378       -0.85816309258148
C           -2.88008987739972       -0.18184294864546       -1.10803328707622
C           -3.48319002391775       -0.07707961034608       -2.51199517788130
O           -4.01046116338390       -1.32990997403701       -2.88171479999438
C           -3.93433855079273       -0.51865689836467       -0.04319191966750
O           -4.43335638344030       -1.82643295747074       -0.17970930760953
C           -3.29689024063631       -0.41765022687489        1.34827760747424
O           -4.25037246629011       -0.57751663300822        2.37080717175982
C           -2.64964050868635        0.95837777190986        1.52059823904717
O           -1.99946448757286        1.08352156588930        2.75204722145889
C            1.38813571021010        1.06090111558283        1.61930760824427
O            0.88998942680148        2.31549879362848        2.00969220697799
C            2.91845935196950        1.10135302591330        1.50719013495019
O            3.43867606835744        1.18090553729380        2.80764123648338
H            5.10572447099923       -1.43052813846841       -0.84798426698087
H            5.26190039668136       -2.05307875498440        0.81909297440232
H            6.51066485294507       -0.95866730486374        0.15129767042111
H            3.14482976840030       -1.05596782311119        1.34537761051903
H            1.21136925063629       -1.36160344827549       -0.01764490363340
H            1.47539042794972       -1.28834318713908       -2.45902389106443
H           -0.07813887634608       -0.53369313168350       -2.00275937095939
H            2.27492859192488        0.89434737359929       -2.59011274047399
H            0.70418551483626        1.61473164989880       -0.33715659884016
H           -1.23896221464112        2.19989533989996        0.44280115426786
H           -2.12190324694151       -0.97891065533756       -1.08936285431740
H           -4.26388041850792        0.69320434844077       -2.49585133548449
H           -2.68678405556365        0.24432910742140       -3.19295940806298
H           -4.33530545103528       -1.28647156280853       -3.79300968390940
H           -4.75747254500084        0.21315437382000       -0.10455627387144
H           -4.57607277936015       -2.00881871593320       -1.12480377124425
H           -2.51316394762552       -1.18589390867453        1.43154672130392
H           -4.74070978434270       -1.39577563309513        2.20048672675301
H           -3.43207783799941        1.72782287488704        1.41769178579570
H           -2.61132410754113        0.77821316915693        3.44176097595307
H            1.10992682306206        0.29219345371584        2.35492396098308
H            1.24443877868096        2.52953875018635        2.88592057117770
H            3.20939706204882        1.97993247427434        0.91273159721338
H            4.40670755050182        1.19482035200826        2.76026651513907
