48
 energy: -84.828108615356 gnorm: 0.000710325620 xtb: 6.7.1 (edcfbbe)
C            3.04538766156235       -2.69642255333262        1.61362411171091
O            3.32141084678439       -1.30601642896069        1.75190009179046
C            2.31631609188826       -0.47392042827275        1.29725708960308
O            2.22086965606422       -0.60760274055034       -0.11109208859815
C            1.62509832745673        0.42817049972411       -0.78431618947593
C            1.79122990562863        0.54912616852331       -2.09291352332414
O            4.70054572128353        2.12710034925464       -6.64673753605636
C            0.75059637523195        1.33323977742418        0.04523262898209
O           -0.38028684786612        0.56750099970690        0.46789786357296
C           -1.62298052768192        1.21491295463975        0.46332210748043
O           -2.37765791243018        0.89150647281329       -0.66993689881563
C           -2.66344497625313       -0.50151730590264       -0.80397879471162
C           -3.51304456239324       -0.66502661205724       -2.06998689165380
O           -2.79836609108804       -0.39122392867836       -3.24443514983725
C           -3.42067705718822       -1.03596671857185        0.42823514728257
O           -3.71401887484136       -2.40091879405228        0.31777249479495
C           -2.62507619191264       -0.70490661727142        1.69847169296040
O           -3.24391227102267       -1.15103591661478        2.87859731445114
C           -2.37701531958761        0.81180110880615        1.74249384828441
O           -1.61022505259706        1.18526486407061        2.85487174415754
C            1.49338973229662        1.88868780998965        1.27732310500763
O            1.90911099132448        3.19537934452293        0.97631234486258
C            2.67742335202301        0.97736404118502        1.65767461143703
O            3.05994385240590        1.13429182340034        2.99246680301803
H            2.92086794015955       -2.95957499376472        0.56212173863396
H            2.14204554807822       -2.96112941785571        2.17082101702098
H            3.90969955672920       -3.20344153863848        2.03175142918828
H            1.34106968459751       -0.74784001221172        1.75002067967818
H            2.41344007514333       -0.14244606433339       -2.62874344458736
H            3.77655265288068        1.85754006821664       -6.64306272209021
H            1.30039596721363        1.32850979266301       -2.63964467241761
H            5.01607813805523        2.06124950360977       -5.73972315197628
H            0.42774682741514        2.18176110896367       -0.56600800093742
H           -1.49765589266523        2.30382149568993        0.43441774228376
H           -1.71600828095876       -1.04687284347509       -0.92213664850570
H           -4.38981651239188       -0.01188449779358       -1.98414354361155
H           -3.84323595846080       -1.70278408805812       -2.14018170572467
H           -2.52246139733373        0.53560571417581       -3.22581434520563
H           -4.39670938885911       -0.53604311205035        0.47695180183287
H           -2.89878413022121       -2.92223522849823        0.35428800014678
H           -1.64859467499833       -1.20368544305639        1.66697383226580
H           -4.20257883088825       -1.02686305460000        2.82103243217530
H           -3.34202629895926        1.34389194135886        1.74694656749611
H           -1.95272853914891        0.70258444690112        3.62647473200367
H            0.77255827502694        1.89395111324967        2.11247748799296
H            2.40637819107338        3.55351171495971        1.72734921616809
H            3.55581145161326        1.25500923545214        1.06282095192001
H            2.38978691251894        0.76198759868037        3.58360091763780
