48
 energy: -84.746267807502 gnorm: 0.000490275158 xtb: 6.7.1 (edcfbbe)
C            5.65741347087353       -0.88745472820174        0.00779542612903
O            4.90189726252470        0.18291914958074        0.57172004858070
C            3.55962787525022       -0.09829106124157        0.75429103552503
O            2.94670116613811       -0.26469504001344       -0.50321195621814
C            1.57432113499615       -0.58398330941082       -0.41719434081500
C            1.07820716136323       -0.84482000393443       -1.84125187830259
O            1.34567131925056       -2.18682819388068       -2.17188391951032
C            0.81136258876789        0.56450162881358        0.25893967231457
O           -0.53726254092364        0.17325210065504        0.45973649332661
C           -1.52263825812566        1.14836276136024        0.22401153640274
O           -2.11608126490806        0.98041943802358       -1.02411182991483
C           -2.78656471269065       -0.28325072814866       -1.20197791345801
C           -3.21108851975719       -0.35419485115453       -2.65610161015257
O           -4.06276559608973        0.98866357091619       -2.85857302475016
C           -3.89485235290237       -0.42196641322254       -0.12798483107305
O           -4.58235003516149       -1.64912506047979       -0.22321361665823
C           -3.28995495774677       -0.26034185352735        1.27337825378436
O           -4.28026444322335       -0.28961919390565        2.27882903879211
C           -2.56317659167952        1.08023849932483        1.35384367233384
O           -1.89359737525665        1.26619818781233        2.57335256856803
C            1.42787919595687        0.90695179813304        1.63272898599131
O            0.88180881083550        2.10006024445032        2.13881429876746
C            2.94534530842302        1.08084001078855        1.53012508963314
O            3.47005876978529        1.13467302978580        2.82870563064839
H            5.26168694900179       -1.15813720308984       -0.97164417239991
H            5.62976306834489       -1.75760764843989        0.66972713040397
H            6.67114055524024       -0.50859483430236       -0.08014454345549
H            3.42651327931062       -1.02841195535550        1.34907834731085
H            1.43758594209656       -1.49939337111166        0.17906147248969
H            1.61395017802792       -0.15970795212556       -2.50791416038483
H            0.00295743786913       -0.64031527563813       -1.88878859034954
H            1.07622320942405       -2.34517720026997       -3.08864962020866
H            0.86400947493625        1.45205894456246       -0.38343966627528
H           -1.07690218659909        2.15114573483420        0.20393425641279
H           -2.06768359633524       -1.10078028458660       -1.03089640434468
H           -4.15138776502803        1.06898514043954       -3.83043660297493
H           -4.00508409010547       -1.12515167461136       -2.70675294464780
H           -3.42444465921782        1.66429997325627       -2.54991167972780
H           -4.65932530063581        0.34989421765479       -0.27700693676756
H           -3.94241131761545       -2.37308959922424       -0.28562027820837
H           -2.55384994990388       -1.06336554274786        1.44737933198431
H           -4.93645410173330       -0.96123104221235        2.03680600450125
H           -3.29808709602772        1.88557731335809        1.19869690000678
H           -2.51264089993874        1.05662897719072        3.29059484565082
H            1.22642202701276        0.07264464038971        2.31900785382931
H           -0.01786176226856        1.92288725861742        2.46695832816599
H            3.15716791588237        2.00653192613947        0.97804061956360
H            4.41951028100046        1.32320049795287        2.77584872094060
