48
 energy: -84.738909734169 gnorm: 0.000581702520 xtb: 6.7.1 (edcfbbe)
C            5.66308120432969       -0.87725282857094        0.20955055228444
O            4.89751418331563        0.18175810626691        0.78141602237145
C            3.53932227179398       -0.07213430121520        0.85762926989597
O            3.02366482823370       -0.23520944312113       -0.43708387321002
C            1.65299598704316       -0.59417351853504       -0.50243986603835
C            1.42583321202179       -0.78221015482917       -1.99632269689574
O           -0.08611916209447       -1.06807374017209       -2.19893923163464
C            0.79320572594930        0.50047581811516        0.19292408531495
O           -0.53623972270121        0.02278472167786        0.38706645503206
C           -1.56931945923057        0.94269703181474        0.15636719470654
O           -2.14492102254686        0.73226129197707       -1.10717393059660
C           -3.02443244278634       -0.39798707128954       -1.23853128024870
C           -3.71431940024490       -0.24847155945527       -2.60358411171628
O           -4.43448080377940        0.95266837763197       -2.70571386953250
C           -4.07277252867134       -0.47982203226948       -0.12598870396136
O           -4.74296569198054       -1.70241556485902       -0.29063190946047
C           -3.38953468638352       -0.39586998750255        1.24120783861732
O           -4.38879467072424       -0.43929678746087        2.22970479163815
C           -2.58387359099091        0.90206270005692        1.30675601676484
O           -1.95749836533573        0.97932611399771        2.56062883189437
C            1.35253803504561        0.85829917215306        1.57733831813473
O            0.65749229009541        1.98628902828712        2.07415367342400
C            2.86014833642067        1.12614484770585        1.53356689870867
O            3.34467209773503        1.42105112261793        2.81577468165613
H            5.32692481488654       -1.08025718267713       -0.80789064963903
H            5.56896227213467       -1.78172188880687        0.81743877304035
H            6.68861377140592       -0.52111848745940        0.21289828042506
H            3.34399265518578       -0.99973198399366        1.44619934620308
H            1.48169375415054       -1.53613437747131        0.04688190041693
H            1.58431607740125        0.22055591040971       -2.44757003775856
H           -0.66496141391153       -0.28081465116420       -2.07496491673639
H           -0.13398532619707       -1.38840577028773       -3.12196621416681
H            0.79378863835441        1.40612652984397       -0.42816473601187
H           -1.15344406964771        1.96027076032558        0.09893091284658
H           -2.45177873251935       -1.33337619112608       -1.20418388315021
H           -2.97147755875825       -0.31363398755553       -3.40534233554926
H           -4.43712052470226       -1.05814092668924       -2.70914783155071
H           -3.81597215419035        1.68919756607177       -2.59590515842559
H           -4.77859974404313        0.36060400143026       -0.21659788979570
H           -5.34182280426745       -1.82258685426133        0.46217165419120
H           -2.69568957916894       -1.24286143360507        1.35847398151547
H           -3.98482715183818       -0.22052518884201        3.08206281222629
H           -3.27581470470868        1.75171256910577        1.18033494489865
H           -1.11105206321720        1.45898470632367        2.48190454974980
H            1.16187499036098       -0.00275976460648        2.23967681950689
H            1.19569315275604        2.37795383841665        2.78290906190855
H            3.06371006436670        2.01133082398177        0.92068246324889
H            3.50337702662728        0.60799264049408        3.31698208961166
