48
 energy: -84.745200926273 gnorm: 0.000763517724 xtb: 6.7.1 (edcfbbe)
C            5.53508926152162       -1.12977174774885        0.27946051982501
O            4.85327731515472        0.05013578558520        0.69866655406368
C            3.48059041492406       -0.08223505255906        0.79967881847279
O            2.92899049317913       -0.22986810678696       -0.48933589199164
C            1.52759459369030       -0.41793721574524       -0.49635588981133
C            1.11307547430545       -0.45062038986324       -1.97771008562546
O            1.48703411191721        0.72416790370689       -2.64294145544646
C            0.76918656244103        0.70111773185963        0.23904615529298
O           -0.55102083137035        0.22268498619443        0.46053653017061
C           -1.60061545162371        1.14749157060563        0.28589818498081
O           -2.21145165429159        0.99669168260032       -0.95788696563097
C           -2.80253101692315       -0.29215406561400       -1.19734662124106
C           -3.23157935868905       -0.31849275624473       -2.65250986099902
O           -4.13163109947224        1.00236131093445       -2.79290019488171
C           -3.90212205741494       -0.54479110246055       -0.12883134076305
O           -4.55686867161914       -1.77518304318335       -0.32609200907968
C           -3.26891580637095       -0.44627415497740        1.26829223980344
O           -4.16732173584972       -0.74608444692547        2.30829598687620
C           -2.63073981469803        0.94538953945980        1.42303882084612
O           -2.06636451950258        1.14523610200532        2.68759661278745
C            1.41205528946308        1.08170249708415        1.58018011175120
O            0.84678641229895        2.29806527891311        1.99454403706277
C            2.93491195096859        1.19215237046762        1.45625489013488
O            3.45246329377035        1.37672650233438        2.74672379884964
H            5.19852419551762       -1.43595755781641       -0.71145611419616
H            5.36297792383120       -1.93888851060030        0.99475519744003
H            6.58717554436523       -0.86212338255735        0.25684968981760
H            3.21065788177560       -0.96614098274185        1.41630149573148
H            1.27345704641191       -1.37251606554436       -0.01090801212900
H            1.56540400737342       -1.32934692875369       -2.45125927260475
H            0.02673324971961       -0.51764974188280       -2.05236003518491
H            2.45137299794811        0.80514460604711       -2.60048589596934
H            0.74869247372456        1.59234756991596       -0.40017598165638
H           -1.21731385226710        2.17376807191149        0.31797139845568
H           -2.03811121618790       -1.07553422998222       -1.07158604273469
H           -4.20580134593982        1.13051155259896       -3.76073166754286
H           -3.99862783947867       -1.11515451874752       -2.72927598775805
H           -3.51653158833366        1.67650773202362       -2.43789708661184
H           -4.68947989252341        0.21171998826729       -0.23276564238581
H           -3.92704549954773       -2.49967582943743       -0.20884085749375
H           -2.47744538271201       -1.20209822626563        1.35579476426235
H           -4.91338525545439       -0.13043420837278        2.28587346442606
H           -3.40202242069021        1.71724541372409        1.32374639644979
H           -1.36190926298372        0.49603295106434        2.82050775788059
H            1.19242155257184        0.28765600358452        2.31215981170506
H            1.30106856140701        2.59257787513764        2.79928292755793
H            3.18723465925015        2.04090911527798        0.80429617420445
H            4.41989030795425        1.40694513391109        2.69791855918802
