48
 energy: -84.856926182937 gnorm: 0.000362485705 xtb: 6.7.1 (edcfbbe)
C            5.59215072024030       -0.98795763411385        0.17058525352169
O            4.86667825092302        0.12526055586419        0.68796049388092
C            3.50234580317040       -0.07433417026575        0.79036553436000
O            2.94481658983232       -0.14716592344749       -0.50395047708833
C            1.54652133154637       -0.36719304202875       -0.52889588422292
C            1.14095628763715       -0.32096529730641       -2.01220474299047
O            1.49829428473931        0.89711432814084       -2.60645592358959
C            0.78195834436396        0.69920333251174        0.27172763017101
O           -0.55220132842655        0.25211133156920        0.45048614956284
C           -1.56280510116483        1.22192349356550        0.32702467350644
O           -2.17376349927451        1.16439813912913       -0.92833687642490
C           -2.81309537648961       -0.08526513973069       -1.17590551105190
C           -3.31110949731970       -0.07960051639468       -2.61876750989561
O           -2.26646617373755       -0.53393268953934       -3.44961484190282
C           -3.94680328337988       -0.32268246233393       -0.15723834835940
O           -4.63938073172485       -1.50981520455935       -0.42379173516237
C           -3.34507992004964       -0.29018968522119        1.25533675485690
O           -4.37656323401476       -0.43145959912085        2.19832118380854
C           -2.58107431847703        1.02595849615380        1.46069580823194
O           -1.95990955204861        0.99300750357197        2.72123274552375
C            1.39909501105657        0.91101989380887        1.66210547293353
O            0.75782403372015        2.00768059166131        2.27220861352065
C            2.90914968128299        1.11776271620597        1.55563993826010
O            3.42165208623851        1.21580292633199        2.85665125654872
H            5.25979747278272       -1.22651175453314       -0.84007510745274
H            5.45867812895535       -1.85896547983181        0.81819861385047
H            6.63240749924826       -0.67672545078407        0.16418678482611
H            3.27866290857218       -1.01456258667246        1.33776567995683
H            1.30889438105087       -1.35215535821902       -0.10139540339233
H            1.61382231024125       -1.16147611488280       -2.53288868866148
H            0.05703833564812       -0.40447269432682       -2.10456221218891
H            2.46094386548896        0.99312500675508       -2.54812485599203
H            0.80108675597639        1.64324005137114       -0.28587777639791
H           -1.13598455910653        2.23130210909699        0.39136873297507
H           -2.07115512281143       -0.89087580952513       -1.07341669947486
H           -3.60433353679741        0.94459648346384       -2.87103806522660
H           -4.18032071399289       -0.74537491862935       -2.68727585366121
H           -2.52419559841337       -0.42751124558624       -4.37608188089346
H           -4.69046377093311        0.47671847242201       -0.24416409473474
H           -4.09461918226591       -2.27196798918456       -0.17748979297679
H           -2.62031643152950       -1.11539922574046        1.35808399939717
H           -4.00806585338738       -0.25751710699380        3.07785779572291
H           -3.30146790732181        1.85868540756076        1.41735248246885
H           -1.10783641040764        1.46421644779684        2.67884784020815
H            1.21583986112766        0.00406070754140        2.25991068270886
H            1.27892038801714        2.25783167533457        3.05289073829422
H            3.12077230527509        2.02937802654418        0.97804242328292
H            4.38705946510477        1.28741738877812        2.81451605568270
