48
 energy: -84.851346097323 gnorm: 0.000477772873 xtb: 6.7.1 (edcfbbe)
C            5.65645299308408       -0.88430695317126        0.05637392091672
O            4.89888247675295        0.16987745679516        0.64700425060249
C            3.55249376240781       -0.10843573944528        0.80169052424218
O            2.95722733485594       -0.22850673839075       -0.47072577598607
C            1.57881025379428       -0.52722009589647       -0.41746699313046
C            1.10431085709613       -0.73614895892166       -1.85884045656824
O            1.17540225920744       -2.10774360819303       -2.16474933229746
C            0.81915560238839        0.60922262022167        0.28202533311463
O           -0.53717676582672        0.22418741768684        0.44510926347550
C           -1.51324063028950        1.21257478066553        0.22344929333529
O           -2.08475152858386        1.08232763088353       -1.04562492177725
C           -2.79227780698303       -0.13949709923246       -1.25223730827731
C           -3.42237742883537       -0.06110903810234       -2.64522493515107
O           -4.41726685429185        0.93512430354076       -2.64622391852434
C           -3.87536955936955       -0.38194745144768       -0.18017719105172
O           -4.51056446285444       -1.61810230605317       -0.36775696471516
C           -3.26187763361813       -0.25235371614065        1.21863849718303
O           -4.19323878854254       -0.43845990922946        2.25521871319229
C           -2.57413087970039        1.11482981421224        1.32815953082368
O           -1.94327791217561        1.29216615685912        2.56940797036115
C            1.41455146407736        0.89354167329310        1.67838606458051
O            0.87818945091384        2.07581118951342        2.21702279155269
C            2.93658440542091        1.04738286653244        1.61097652408167
O            3.43497126892057        1.03925760792432        2.92088838478820
H            5.27839316759764       -1.11278778192789       -0.94062379073773
H            5.60956942546123       -1.77931068998099        0.68295812228483
H            6.67470968965517       -0.51118270546874        0.00219520490118
H            3.40480594244644       -1.05766886086801        1.36121072402934
H            1.41485543888259       -1.45898352549119        0.14519674448932
H            1.76052768510183       -0.14614653840136       -2.50737740762549
H            0.07423862927701       -0.37117894242660       -1.95136254862203
H            1.04775852837106       -2.23488114390775       -3.11612143534676
H            0.89325209468095        1.51832998367694       -0.32699525785451
H           -1.06319616271079        2.21272855332431        0.23282752433970
H           -2.07894100418456       -0.97710904365422       -1.22334011223030
H           -2.63086346065899        0.17958250248470       -3.36376680821210
H           -3.85512682841180       -1.04196600205552       -2.87603610871891
H           -4.78972103038018        1.00852296637027       -3.53619975220050
H           -4.65725672956355        0.37489500827249       -0.31476144482145
H           -3.90797392613312       -2.33883829235828       -0.13265275672906
H           -2.49608810051755       -1.02484323005731        1.36353855227816
H           -5.03267235282863       -0.01071566323521        2.03094110506811
H           -3.31102242362655        1.91546266884543        1.15715112099898
H           -2.51424537795363        0.90565322176263        3.25509775155220
H            1.18912998326236        0.03809764403599        2.33026809810756
H           -0.03196577170925        1.90533270446547        2.51908131303536
H            3.17317312716276        1.99151385377640        1.10184409866939
H            4.38620859241772        1.22411142990041        2.89752181581806
