48
 energy: -84.856991900103 gnorm: 0.000318173141 xtb: 6.7.1 (edcfbbe)
C            5.65857091920191       -0.83174859761192       -0.02311361087019
O            4.87958505821358        0.24377557824645        0.49568934322723
C            3.55595591943294       -0.07330680392556        0.72241608808193
O            2.91589378628469       -0.22696116265173       -0.52871395398769
C            1.54293683934183       -0.54670592465468       -0.44911109171747
C            1.04769815293837       -0.76839757741502       -1.88369063469526
O            1.01404740926274       -2.15087493715720       -2.14529510513546
C            0.77495166866674        0.57367103775911        0.26825177308845
O           -0.56711728516475        0.15546076805588        0.46504434366921
C           -1.57746739993730        1.11035438409044        0.27007023308198
O           -2.17997017723173        0.96226189948490       -0.98295883464264
C           -2.82559858818309       -0.29918469833553       -1.17893951574330
C           -3.49666848243351       -0.22744340665207       -2.55891502970560
O           -4.38998563920298        0.85020928115107       -2.65350753625045
C           -3.86176396486255       -0.59043428756540       -0.08089067615882
O           -4.41672165460657       -1.87381466735978       -0.21442889741703
C           -3.23740293750123       -0.41486135366714        1.31141431202781
O           -4.20129899174126       -0.53045568988870        2.33089857041675
C           -2.60096371038450        0.97140907237078        1.40577529826006
O           -1.92656180868941        1.17624289911964        2.61873935800932
C            1.40619518369521        0.83861010407219        1.64735922571667
O            0.85940805618207        1.97666469254808        2.26868061500063
C            2.91965184755369        1.06198128981098        1.53385699406830
O            3.51689641649203        1.06956622727890        2.80073814481008
H            5.25643197292695       -1.16721871893263       -0.98049977865262
H            5.67189066799108       -1.66430333021492        0.68601243687013
H            6.65826338574712       -0.42749107366223       -0.14968676605046
H            3.46542996549442       -1.01747161778360        1.29999473314847
H            1.40332673346022       -1.48080330286739        0.11650189589012
H            1.74329886057272       -0.24819204787679       -2.54942302340121
H            0.04568373258819       -0.33450729100061       -1.99260233879817
H            0.96886362383922       -2.30089192353324       -3.10041279464983
H            0.81581114674788        1.48847527582936       -0.33467571687288
H           -1.16343356334019        2.12623030917428        0.26968636116802
H           -2.06863924905829       -1.09692216173011       -1.17140183506967
H           -2.72156361385757       -0.15554550728712       -3.33050411357034
H           -4.08808414876644       -1.13091228236682       -2.71492118971749
H           -3.89560868513470        1.66831618702542       -2.50018199356202
H           -4.70224575710232        0.10525136665408       -0.18931307347319
H           -3.71315096136927       -2.54057782677868       -0.20130477663920
H           -2.44293029310869       -1.16623218512634        1.45318803381652
H           -4.80605785583680       -1.25324761231767        2.10390023694901
H           -3.38369955338808        1.73202429328024        1.26831959231685
H           -2.52490820672560        0.92869180862350        3.34176104230485
H            1.23532122086068       -0.05333163301684        2.26891831216525
H           -0.06242444810764        1.79155385347303        2.52629911327311
H            3.11124960144899        2.00538451511453        1.00319391301058
H            3.09661781464783        1.76805578885638        3.32806339373460
