48
 energy: -84.851124437596 gnorm: 0.000619698999 xtb: 6.7.1 (edcfbbe)
C            5.43482962659168       -1.08903654088245       -0.03298454724267
O            4.77666186975852        0.03668114999938        0.54382106743591
C            3.41525432866278       -0.12455477000689        0.72903489550489
O            2.77821755489203       -0.20592918793356       -0.52792818802190
C            1.38560832716636       -0.41307677240175       -0.42135594802910
C            0.83034293280573       -0.57546799983141       -1.85242286727226
O           -0.02828483458795       -1.67284235674307       -1.99665991962540
C            0.69891727673098        0.73265064958136        0.34537685232173
O           -0.64149900790363        0.31677222257425        0.55720632870617
C           -1.64852785543800        1.27704765237148        0.41875890827739
O           -2.27233862398003        1.18646484577624       -0.83621263645810
C           -2.86386887258873       -0.08416957588183       -1.11223964950500
C           -3.49172595748941        0.02184669677819       -2.50744625708048
O           -4.40168818178258        1.08744014179302       -2.60210358756114
C           -3.91826589117929       -0.45035120981970       -0.06005514613048
O           -4.35013788708316       -1.76246274675047       -0.31930386166632
C           -3.31485442775074       -0.32809577993979        1.34459428485653
O           -4.26086125678284       -0.60841559212975        2.34953694195628
C           -2.70094460281318        1.06386890593467        1.52509813610995
O           -2.11128048569966        1.22480903183711        2.78374061505360
C            1.39306580046795        1.04221437558841        1.69081236398703
O            0.89115473140823        2.22379105439867        2.25636431871115
C            2.91535685828825        1.10069000782418        1.51139615767541
O            3.51017159136349        1.16617961082250        2.77765360461208
H            5.04594658950371       -1.28733498640357       -1.03230760169238
H            5.30003741107922       -1.97044068372005        0.59995104717847
H            6.48443518990079       -0.81514930593602       -0.08206900043060
H            3.19889327012066       -1.04784754196430        1.30731594206709
H            1.19122916650978       -1.33635852768412        0.14816097618855
H            0.23784506207887        0.30048555472790       -2.12403624559862
H            1.68932299440999       -0.64353632330696       -2.52937012745903
H            0.47442820990995       -2.49872152421063       -1.93794530617507
H            0.72024505233895        1.63927042307877       -0.27477024830429
H           -1.24658383212242        2.29338233741442        0.48471320398022
H           -2.09400028872923       -0.86477789914091       -1.12266690622986
H           -2.69017497475523        0.12668467138915       -3.24745287537110
H           -4.05146838975775       -0.89306146856958       -2.70440649843143
H           -3.92528523536631        1.90327851172248       -2.38962088276265
H           -4.76512970946589        0.25177558507950       -0.15522825045704
H           -4.80693025254477       -2.09872944163181        0.46805613513732
H           -2.52401769229788       -1.07666237820306        1.46103098986608
H           -4.99506097613622        0.02256610616194        2.29173670188181
H           -3.48505043016954        1.82806491048522        1.37709584024764
H           -2.60301457746343        0.68353438409883        3.42378386384996
H            1.14294637580777        0.24932529636768        2.40387605473127
H            1.37135807117258        2.99015972888972        1.90889279568566
H            3.17490085303423        1.98700104521460        0.90897375548086
H            4.47439411268231        1.18161465629428        2.67392090414107
