48
 energy: -84.719385528866 gnorm: 0.000622211843 xtb: 6.7.1 (edcfbbe)
C            5.49503128793111       -1.29079867845410        0.55385414423560
O            4.87103131560715       -0.08629641527834        0.99357939125260
C            3.48867002097190       -0.11487506682673        0.97813014972812
O            3.03716482255411       -0.14584635861612       -0.35855306925642
C            1.63345072750952       -0.25488191940829       -0.47542151556173
C            1.32388142540703       -0.20435424648814       -1.97941643268494
O            1.78451125918330        0.97934119330468       -2.57093716354638
C            0.88382751554786        0.86475972054805        0.26751418036566
O           -0.46393781251968        0.42968216646811        0.39870392115457
C           -1.46266426682765        1.39363721452417        0.21891895659799
O           -2.02722490768028        1.33424896442976       -1.06001988889537
C           -2.67232473380851        0.12606771118011       -1.41740320077344
C           -3.86096267032060        0.21595273810061       -2.18532191077864
O           -5.17887997154253       -2.32285704531989       -2.79574274844816
C           -3.75748798889884       -0.46122292927542       -0.36474086087724
O           -3.90906461252730       -1.82900065899598       -0.46927754939927
C           -3.15632900658345       -0.23122137784790        1.04987880188605
O           -4.14923600016075       -0.42934114200730        2.01537691732555
C           -2.57866477197059        1.16942917144075        1.25397731214194
O           -2.05291744728744        1.31593821740625        2.53862593618853
C            1.45275803473389        1.18520010696712        1.65704335683803
O            0.97469786112858        2.45644939849642        2.01787972421214
C            2.98645614900844        1.15946367987419        1.66844150277970
O            3.40225752153521        1.22227129495642        3.00642048558382
H            5.22508798547486       -1.50737003005236       -0.48024645894081
H            5.19880337389444       -2.12494668834299        1.19585467922751
H            6.56235840814278       -1.10927369711391        0.63699087302929
H            3.10205112140611       -1.00764986860272        1.51332111764411
H            1.29562213410420       -1.21538209401731       -0.05674592708151
H            1.77194789999246       -1.08076155137124       -2.46169296909195
H            0.24323103951126       -0.22246582305209       -2.12438599488272
H            2.74401601803305        1.02859269049370       -2.44428216223341
H            0.92985186504666        1.78066606953028       -0.33640280481143
H           -1.05679263910751        2.40515834897340        0.32811386610678
H           -1.96866215519157       -0.68729721166248       -1.59022921712869
H           -4.22515248081519        1.25490330437880       -2.16724554903284
H           -4.82479518086668       -1.48797705495004       -3.14811222876007
H           -6.13669209470004       -2.28851353216945       -2.88553117885109
H           -4.72231787982077        0.07889510879012       -0.38116578876125
H           -4.39019747143345       -2.09192575735076       -1.30245455039057
H           -2.34046616845455       -0.95857221029473        1.16296081162237
H           -4.46161117738619       -1.34646175713405        1.96988022523207
H           -3.36600243298728        1.91878604801512        1.06792347667082
H           -2.71874692589842        1.00163669977008        3.17320985287682
H            1.08626195263738        0.42491310827252        2.36279707954081
H            1.29231905318182        2.66276990428504        2.91010717943105
H            3.36419917916163        2.02012222365173        1.09720766303117
H            4.37033792350075        1.18693237625865        3.03850600714894
