48
 energy: -84.828916027456 gnorm: 0.000473383356 xtb: 6.7.1 (edcfbbe)
C            5.45108773739697       -0.43194719746075       -0.24501839940724
O            4.72247657077198        0.33716328933996        0.70876003862430
C            3.39095114646825       -0.01090586644775        0.82548762295322
O            2.72744747954897        0.30354706056373       -0.37912700230806
C            1.34855093858210       -0.01841976149572       -0.37702565816503
C            0.78623324780547        0.29824266466224       -1.75446091424751
O           -1.13356823721901       -3.73779751073242       -5.04165237365674
C            0.63584351877203        0.77948965941108        0.72691349866150
O           -0.72850615105311        0.38745798300208        0.77171270909615
C           -1.67768170431650        1.39959298723250        0.97739422036324
O           -2.28303094160902        1.79378913380618       -0.22036008098759
C           -3.10447325398451        0.85607120459849       -0.85280280284111
C           -3.16896692405316        0.95470833295004       -2.18121410295195
O           -4.02616055432823        0.24500827478783       -2.95232347106020
C           -3.94699081408708       -0.08093741074610       -0.01897784341501
O           -4.13429233971221       -1.27404463139682       -0.73779336348206
C           -3.32559919123288       -0.39280527104535        1.35506204621138
O           -4.35217296270809       -0.94248249630979        2.15110481437648
C           -2.73056313788651        0.88170536401057        1.96764343519583
O           -2.09484605471372        0.63626126087696        3.20192829955322
C            1.28686654428581        0.50092538553560        2.09554071676982
O            0.74058881151990        1.31042981510999        3.10590566309965
C            2.79812307616761        0.76551138462151        2.02062579882096
O            3.45734667615025        0.46058019779088        3.21375296157568
H            5.03697929047667       -0.29178258351281       -1.24455274006781
H            5.42362412978418       -1.49236767024484        0.02260724589633
H            6.46896349456447       -0.05716639919243       -0.19829593216771
H            3.28569220534307       -1.10516698579410        1.01101122738069
H            1.22231200677247       -1.09040453588562       -0.15320258312240
H            0.97898725498998        1.34031951943453       -1.99206530157331
H            1.26378422402315       -0.32994191015299       -2.49897507152670
H           -1.21705910807851       -2.93208615468609       -5.56167331974585
H            0.71904894989808        1.84990128837675        0.50352283403474
H           -1.20508913571681        2.30964105384014        1.36759187544797
H           -0.28450908741484        0.11653590143720       -1.74902065744462
H           -2.52397235377126        1.67595358990318       -2.66381831940171
H           -1.68746113879473       -3.62695544667991       -4.26198384381029
H           -3.89680213241886        0.46564870661108       -3.88682106834060
H           -4.92230172679177        0.40167965320979        0.17229003720044
H           -4.77398834471502       -1.82255026045049       -0.26014249931250
H           -2.50937899879541       -1.11180875097837        1.20980437926101
H           -3.96488865372475       -1.39570851123504        2.91274056382348
H           -3.51097864422106        1.64512377908205        2.06146527727213
H           -2.71888012073042        0.77779876693517        3.92858362852223
H            1.12248418848147       -0.56264666722544        2.33421771766473
H           -0.18477071846764        1.04237769808187        3.26239288315871
H            2.97470488195235        1.83250102091744        1.85638589590431
H            3.28447078374344       -0.45805557135960        3.47027031238599
