48
 energy: -84.740527141818 gnorm: 0.000664128000 xtb: 6.7.1 (edcfbbe)
C            5.62818928149047       -1.13222148792227        0.30464273346174
O            4.91896827507809       -0.00414352417515        0.81291604964216
C            3.54333804925006       -0.16747224311488        0.85890450172777
O            3.04426274824777       -0.31468855934997       -0.44177156547343
C            1.65250870469372       -0.57386873959490       -0.52107155301399
C            1.43590978035664       -0.71172443346015       -2.02219068356258
O           -0.08416283966624       -0.91369870630962       -2.25879687586324
C            0.84067261454672        0.55241303008870        0.18861100546508
O           -0.49555851719520        0.09075509251532        0.39652326406966
C           -1.52894414203725        1.02081459940875        0.18027320485471
O           -2.11263476187252        0.81939879733861       -1.08168350677272
C           -2.95785310519721       -0.33338028264175       -1.23943256198941
C           -3.65570803816923       -0.16885261449489       -2.59888701480696
O           -4.41338955636207        1.01124512553977       -2.66774323057513
C           -4.00102297899762       -0.48136869643479       -0.12951905746290
O           -4.61995760889800       -1.72784458789754       -0.31982975572544
C           -3.31244216715648       -0.39775227676247        1.23384088618194
O           -4.29596063777129       -0.49272862411052        2.23627757683895
C           -2.55745488768140        0.93242276048428        1.31906372228240
O           -1.96484822125151        1.09317155249412        2.57857994659700
C            1.43095440790165        0.93595173896439        1.55446537850658
O            0.80789076057922        2.12433256584793        1.97943594418126
C            2.94921249813662        1.09543654504211        1.49293866561512
O            3.40904433891618        1.30963988455562        2.80105298420081
H            5.29707261834878       -1.36084785001186       -0.70888433958447
H            5.46691709075223       -1.99918862239362        0.95152169320899
H            6.67402104570689       -0.84056236909218        0.31126198102697
H            3.27322137351926       -1.05965556960733        1.46733214094424
H            1.41579414416164       -1.51463570327848        0.00602895958180
H            1.65302681312550        0.29297839593928       -2.44361962128288
H           -0.63009458476307       -0.10621558094210       -2.11329894408549
H           -0.12921702348228       -1.19612789693573       -3.19428884999826
H            0.84124588078540        1.45267998694022       -0.43985833767433
H           -1.11861500026745        2.03869243545974        0.15091287522516
H           -2.35672204694411       -1.25123430433590       -1.23226753614345
H           -2.91371409712230       -0.19014638364845       -3.40358597760044
H           -4.35344154320625       -0.99741895918390       -2.72441901415838
H           -3.81820356020620        1.76459036273740       -2.54370428514076
H           -4.74194330538541        0.32996741998497       -0.20082504924458
H           -5.20640954997368       -1.89123159219798        0.43361298388225
H           -2.59345507731084       -1.22833776716551        1.32691220981477
H           -3.92764662721149       -0.14318147810207        3.06203293004946
H           -3.27369705436290        1.75446723230949        1.21072710310259
H           -1.13442147523781        0.59549902800491        2.59202150271525
H            1.21763252173791        0.11868722870587        2.26419923126697
H            1.26512372749241        2.44333919496934        2.77291092469233
H            3.20702549713084        1.94305147977926        0.83996985685104
H            4.37776623108679        1.32858439687167        2.79368752472314
