48
 energy: -84.715328691688 gnorm: 0.000973094120 xtb: 6.7.1 (edcfbbe)
C            5.74542989961333       -0.91306553118762        0.37095738190834
O            4.96859033287708        0.13465561327583        0.94846745297260
C            3.60939359017454       -0.11643825562800        0.99190548530688
O            3.10218376510412       -0.17400175035889       -0.32378486219774
C            1.72045293729409       -0.45714941641012       -0.38564176483051
C            1.34581533751259       -0.56325229283246       -1.86446140843784
O            1.62307981906453       -1.86953888343224       -2.30184518924436
C            0.91561157984308        0.63724076874220        0.33477968738330
O           -0.44788252240740        0.25638423240905        0.39053788012765
C           -1.39449533633674        1.27263879571451        0.17603741761037
O           -1.89592211049109        1.25359919893872       -1.12410091962683
C           -2.61815198953565        0.09279794923298       -1.50720255477901
C           -3.74211643685231        0.26902307984597       -2.35339461285957
O           -5.61427465382976       -1.95382867105851       -2.77746940144365
C           -3.78773364530655       -0.38785973077271       -0.49835925737003
O           -4.04324348368046       -1.73699029521062       -0.62429710044617
C           -3.25156260375632       -0.20619416129382        0.95541103142460
O           -4.33230664957703       -0.29386767484001        1.83334039276173
C           -2.52796981366956        1.12027780963224        1.20119092790130
O           -2.03571904105399        1.12882284726060        2.51289920218747
C            1.43476701325527        0.83481031706960        1.76543873332474
O            0.76557826649323        1.93994852357636        2.32914934651027
C            2.95100483279067        1.03858205666077        1.76220576162574
O            3.37563815868645        1.09193696077529        3.09672659997213
H            5.42893582854542       -1.09967967263766       -0.65564527955416
H            5.64219534561437       -1.82787604491508        0.96086952381041
H            6.77116753230160       -0.55792315906591        0.39604334772557
H            3.39769042497153       -1.07783846764137        1.50690498392331
H            1.51059009352205       -1.42306045564176        0.09876117794045
H            1.94069109855141        0.17554317852329       -2.41374126086882
H            0.27994155229662       -0.33082168002446       -1.97412659408823
H            1.46844524346197       -1.93138263124186       -3.25572489799125
H            1.02632275323332        1.57995822712088       -0.21630913217762
H           -0.93185179695998        2.26223292346622        0.29065863462390
H           -1.96941774376819       -0.77396649592121       -1.63041294734414
H           -4.02103151625820        1.33385483640194       -2.36825128419329
H           -5.19436659378447       -1.15837103952406       -3.14754572929910
H           -5.40142207394186       -2.68594595732329       -3.36572109035747
H           -4.69972669478046        0.22977727102319       -0.56628244452388
H           -4.67377746065579       -1.91301149983287       -1.38036759533828
H           -2.52890936590781       -1.01606214411711        1.12367462379021
H           -4.67569491798403       -1.20114238357449        1.83028272433000
H           -3.24282267901047        1.94800545005189        1.06586325121927
H           -1.13992602636352        1.51660047709676        2.52833075546320
H            1.20518491627457       -0.07090043191784        2.34695792929956
H            1.20942340164830        2.15996340848116        3.16484923290943
H            3.19620948533677        1.97135164949243        1.23221720951013
H            4.34144696080692        1.15713011263455        3.12224969012283
