48
 energy: -84.751369066933 gnorm: 0.000429823058 xtb: 6.7.1 (edcfbbe)
C            5.57649000099506       -0.90849911170680       -0.09133515262837
O            4.75939900089768        0.19772197981671        0.27591881657899
C            3.46604031066706       -0.13799313928345        0.64742779659918
O            2.73594142976262       -0.42178335934702       -0.51363034972746
C            1.32508629486236       -0.72724449366396       -0.29889898819668
C            0.66203955324032       -1.17270781973379       -1.57591322157316
O            1.11884249552596       -0.20076731388903       -2.68297755160180
C            0.67475921332834        0.51638226073806        0.33473269154512
O           -0.69057611776225        0.23161374940168        0.57872468247458
C           -1.61427212661442        1.25192394087040        0.31926256240661
O           -2.24256607245498        1.06794825648404       -0.91695358711207
C           -2.89884583889987       -0.19630424804089       -1.04230299328722
C           -3.56346912596568       -0.20935684908922       -2.42632704000135
O           -4.39161758645656        0.90848875312435       -2.62682149404822
C           -3.94624482211438       -0.38849401339011        0.06695454761258
O           -4.52656660566915       -1.66775891553371        0.02303089959917
C           -3.33203621450980       -0.12565343601841        1.45156346952866
O           -4.31203538018296       -0.13710848761683        2.46497167835009
C           -2.64783561238928        1.24163834797546        1.45681169540573
O           -1.97132409335266        1.50344723730899        2.65983129565453
C            1.37767146382996        0.85091732752729        1.65806945319546
O            0.88793548956972        2.03520210927637        2.24501612846814
C            2.87991082977922        1.04937531790796        1.42438472294268
O            3.57256169396847        1.13854461647291        2.63979369913580
H            5.13171516824699       -1.45967905760116       -0.92244628140541
H            5.71320826348895       -1.57771112539002        0.76294889734422
H            6.52809053819401       -0.47760194749143       -0.38808861994060
H            3.46380454656595       -1.02390496895661        1.31659056218125
H            1.23898711309556       -1.55017929588645        0.42515122855714
H            1.16501707019045       -2.10701044816926       -1.88568675302981
H            2.04583101644978        0.06856362142886       -2.50460624191338
H            0.53237477429006        0.57873428853897       -2.64789992908027
H            0.76846608763981        1.38062751127304       -0.33472354450488
H           -1.13133841933652        2.23512179839506        0.26333517434793
H           -2.13907378991317       -0.98949376462876       -0.98435306897071
H           -2.78683709290837       -0.26055453936969       -3.19656353325294
H           -4.20765344855063       -1.08672065485813       -2.50161377368479
H           -3.85268960005851        1.70289922423985       -2.50020908131832
H           -4.77232628324846        0.31487993586433       -0.09482116921814
H           -3.82823521244764       -2.33950260610492        0.02983350966397
H           -2.56516858255046       -0.88981065991156        1.65790486336478
H           -4.92638138023737       -0.86561227238530        2.28745126225139
H           -3.40009771614537        2.02048739253951        1.26406961932231
H           -2.57712035482603        1.30991078767566        3.39242810744608
H            1.23976039204024        0.00131290113845        2.34458449030639
H           -0.03929959801503        1.90068561505760        2.51419053049504
H            3.03596132289353        1.95811260773737        0.82412866511868
H            3.18033902489839        1.86245400299746        3.15382732274619
