48
 energy: -84.854814836496 gnorm: 0.000495993316 xtb: 6.7.1 (edcfbbe)
C            5.61930951264132       -0.91942581752952        0.08155936667127
O            4.87613274485478        0.14494846371338        0.67233595238843
C            3.52663961906242       -0.11096298273881        0.81170036674778
O            2.94221375430803       -0.22998019212133       -0.46888665408672
C            1.56572914971218       -0.54814810237947       -0.44902308660934
C            1.12672250469326       -0.73862585808207       -1.90144224147923
O            1.47009473219299       -2.04613311253121       -2.29380723070489
C            0.77661364284784        0.56327266505719        0.26087507708362
O           -0.57454679177960        0.16508116251909        0.41493591548580
C           -1.55015796054619        1.15523871908701        0.20393282484436
O           -2.11939237740740        1.05323176310993       -1.06880250752195
C           -2.80114420274446       -0.17844674575492       -1.29170266631458
C           -3.28316512564492       -0.18572765911628       -2.73857380622407
O           -2.17994826782365       -0.43356938887596       -3.57876625278520
C           -3.95542825096277       -0.33678516084003       -0.29514199353404
O           -4.59451742712230       -1.56158359462411       -0.53571831400281
C           -3.39079077569606       -0.26710536633416        1.12895845020726
O           -4.46969644030682       -0.36262192657551        2.02694221303175
C           -2.61317366032654        1.04194022543324        1.30935606699462
O           -2.04795517373534        1.06354964457328        2.59524613309962
C            1.36853699107296        0.82000564779985        1.65397283700015
O            0.70794856150646        1.92473349774252        2.23043874897638
C            2.88324462516570        1.05928722548511        1.57249771780887
O            3.41929578692344        1.26895224143633        2.84850125721997
H            5.24444630570943       -1.13644551911247       -0.91943795068669
H            5.55301909807982       -1.81780896247388        0.70209399688818
H            6.64403161341167       -0.56361506589628        0.03790349617188
H            3.35846315690332       -1.06147783316104        1.36783757997318
H            1.40580712664779       -1.49514599892316        0.08942530312393
H            1.65326352206514        0.00549691797891       -2.51070561647733
H            0.04628040799349       -0.57595802761922       -1.98132489134298
H            1.19468339517173       -2.18415108314135       -3.21119442872685
H            0.84060318869520        1.48078396393048       -0.33612059709270
H           -1.09688863492024        2.15477120949722        0.23399970145406
H           -2.10444386837440       -1.01583814724548       -1.14981907746118
H           -3.73016812957943        0.79132068784639       -2.95421975969184
H           -4.03641316993738       -0.97585856833351       -2.83441122692258
H           -2.47430030630460       -0.40539754701542       -4.50055128456355
H           -4.66455759153350        0.49667327975091       -0.42716289810403
H           -5.19529280587829       -1.73660745806463        0.20616618264759
H           -2.69143294358255       -1.10400797561160        1.27975625507763
H           -4.14181740189601       -0.17124771107900        2.91840866132447
H           -3.31272370923823        1.88605180920337        1.19483258746255
H           -1.15912171871284        1.46234369947692        2.56107716468268
H            1.17597055125752       -0.07648430013334        2.26656073517004
H            1.27169695011505        2.27453206109275        2.94189725904943
H            3.08445593973569        1.97553185866239        1.00737624575669
H            3.50862686138270        0.43086236072286        3.32599244487347
