48
 energy: -84.732858148849 gnorm: 0.000393832166 xtb: 6.7.1 (edcfbbe)
C            5.66031659935013       -1.09506490408009        0.29269461424977
O            4.95281242022948        0.01763871028370        0.83606559105015
C            3.58120692342133       -0.15199894161336        0.88171302464978
O            3.08416648864746       -0.24730475820928       -0.42703445021860
C            1.70208200114409       -0.54146223643504       -0.52438465729661
C            1.50720377477838       -0.66063305839307       -2.03717503927721
O            0.00299023082128       -0.75254813090696       -2.36013110932383
C            0.87384322254013        0.55367211061026        0.20880246965496
O           -0.46477731770309        0.08099275121940        0.41305739289590
C           -1.49796059342148        1.01142211522588        0.21985788437849
O           -2.08516403703867        0.81500927250345       -1.03895956278675
C           -2.96237335552366       -0.31836326595862       -1.17177884894832
C           -3.63553187732305       -0.17265976545484       -2.54804657078827
O           -4.33451519058307        1.03871555788648       -2.66139127218057
C           -4.01066593536057       -0.39594406492783       -0.05306098244759
O           -4.79707109934562       -1.55259452987808       -0.16014554849241
C           -3.31186897191479       -0.33310755671725        1.31172611242632
O           -4.23322005032500       -0.32750362503384        2.37448492204381
C           -2.50548607884229        0.96170327794931        1.37488109467336
O           -1.78775260838165        1.09054003264715        2.57344049565972
C            1.43803486309041        0.88802280809861        1.60764260710782
O            0.86100405725304        2.06964954880409        2.11518016239639
C            2.96145297138546        1.06264938418389        1.59562088114086
O            3.48326220578590        1.25866560966595        2.87731092276225
H            5.34314881563217       -1.28074662099979       -0.73459244069699
H            5.48501460494081       -1.98671328195180        0.90225373624930
H            6.70778362612201       -0.81207210868368        0.32683294751750
H            3.32210277707780       -1.08511950772933        1.43662444550566
H            1.49501684676111       -1.49615786061494       -0.00401633000060
H            1.77840672065967        0.32962441735654       -2.45196331892703
H           -0.57447088832212       -0.14533310670451       -1.83734617370046
H           -0.22933707870815       -1.68683891651206       -2.19808994903107
H            0.87480073788807        1.47231270733561       -0.39166743073584
H           -1.08058576925696        2.02690983678093        0.17424985775434
H           -2.37740849844897       -1.24723652063198       -1.13815860262227
H           -2.87967129059818       -0.25913104811951       -3.33671283915055
H           -4.37863344755170       -0.96380030356738       -2.66206100101138
H           -3.70104762350404        1.76670070382073       -2.59186741481954
H           -4.70910423850204        0.44350327606822       -0.14421782327175
H           -4.23490722147000       -2.34266935750036       -0.15384308096533
H           -2.61910780335400       -1.18485156741020        1.41906682970009
H           -4.96231997933949       -0.92970096801101        2.15895997173742
H           -3.20050873055390        1.80703863985391        1.25515817776307
H           -2.39991889475935        0.92658515694520        3.30888397176946
H            1.19348367739031        0.03714509352947        2.26327596211412
H           -0.03735690868445        1.87043651118820        2.43726638901218
H            3.22638110052615        1.96125610823748        1.03059485287800
H            3.26361781405606        0.50623232062268        3.44761123344581
