48
 energy: -84.859171791930 gnorm: 0.000321757225 xtb: 6.7.1 (edcfbbe)
C            5.67630696289443       -0.72014554848576       -0.17003781062993
O            4.86335867376595        0.35208794969922        0.30007879355544
C            3.56784936300626       -0.00569550168648        0.61435279781229
O            2.87413209997191       -0.24025171299396       -0.59501607670514
C            1.50194629939217       -0.55132350222829       -0.45093569266816
C            0.96516334947544       -0.78423460926894       -1.87141995031738
O            1.08838322720184        0.35208377768927       -2.68105842522478
C            0.76298244601460        0.59535704004733        0.25372451766168
O           -0.58685911793695        0.21744071258180        0.48699389952630
C           -1.55915646857935        1.21032342153372        0.28585232308391
O           -2.19709380248394        1.07917692575621       -0.95005714491400
C           -2.91094612080675       -0.14231979608996       -1.11905356387134
C           -3.55534302818678       -0.07858452331313       -2.51041493312187
O           -4.37852541498042        1.04868775614118       -2.65533746929102
C           -3.96996233876645       -0.33869148483709       -0.02523618487660
O           -4.51895299590187       -1.62067649609343       -0.19697061597426
C           -3.32526827734411       -0.19160399283441        1.36056948890004
O           -4.26881917561623       -0.31292252519492        2.39795604320864
C           -2.57407558135469        1.13992052400075        1.43981274919384
O           -1.87837496569980        1.28865976581917        2.65052312347385
C            1.43643816827046        0.89316012172333        1.60383228086542
O            0.90289887419982        2.03571612448237        2.22837538817295
C            2.93861623490123        1.13919004481542        1.41713533266124
O            3.59263014410644        1.19575184564270        2.65474583245259
H            5.25320557796873       -1.15504544232774       -1.07698722270871
H            5.77047793327896       -1.48908237213081        0.60178108132715
H            6.64472868266992       -0.27550420123765       -0.37865685006452
H            3.54582941739848       -0.92572198361243        1.23469320666240
H            1.37848207598936       -1.46794298068604        0.14511454165431
H            1.49974686977936       -1.63567443195647       -2.30876202718059
H           -0.09920573566417       -1.01435808526250       -1.81640344550745
H            2.02753439340856        0.58161030808849       -2.74410465718006
H            0.80482143706696        1.48487021771175       -0.38592066942578
H           -1.09927250848703        2.20615887860513        0.26208122519553
H           -2.22028802477370       -0.99432861319653       -1.07334603369672
H           -2.76082098048414       -0.08064751752384       -3.26536665552113
H           -4.19181564450242       -0.95475768431417       -2.64085186357424
H           -3.82539078607620        1.83705513385542       -2.55299220138773
H           -4.74974041201359        0.43153634494994       -0.15243370907268
H           -5.04042775018839       -1.84498946722876        0.58986329072861
H           -2.61080314269451       -1.00863461114575        1.51003939934816
H           -4.95944379278218        0.36022283806834        2.29590712827275
H           -3.28757221120482        1.97039731824708        1.31089035314807
H           -2.40841440252713        0.89299021213099        3.36237464549806
H            1.30489619762058        0.01105997047314        2.24900831953780
H           -0.01302244818421        1.85293345560159        2.50805325383346
H            3.08668740914684        2.07123175525867        0.85335873831352
H            3.17744936537641        1.89785996569689        3.18098030230452
