48
 energy: -84.853570703979 gnorm: 0.000474972436 xtb: 6.7.1 (edcfbbe)
C            5.46952169024076       -1.29297173620745        0.26769192641382
O            4.85439502451174       -0.08723229658821        0.71336377603543
C            3.47932447752025       -0.15393210908583        0.81351345118533
O            2.93873720261469       -0.16255767563847       -0.49120188492863
C            1.53507978901471       -0.30975468017407       -0.53076833794500
C            1.15117918940385       -0.28973679197743       -2.01951568043331
O            1.50840067483394        0.92077612265775       -2.62905754892217
C            0.80349836885903        0.80986456841517        0.23276731832526
O           -0.52290902665730        0.33973861083354        0.45238292412371
C           -1.57184586455099        1.25778556960618        0.31339418479114
O           -2.19823877169474        1.12795733842984       -0.93460476700144
C           -2.75858196757073       -0.16326629301883       -1.16839760902743
C           -3.36099939880596       -0.13761021476661       -2.57776943667644
O           -2.37771924519062       -0.04379124978725       -3.57485330221442
C           -3.81251972132487       -0.51095310158187       -0.10700307673053
O           -4.35509126411439       -1.79294547597412       -0.28941279014374
C           -3.19804579897463       -0.36699432490507        1.29372903365690
O           -4.16571012589055       -0.53540112698351        2.30237573737574
C           -2.59259313101494        1.03176822910431        1.44375586524525
O           -1.94855948241651        1.20317177561403        2.67314091689523
C            1.45138489730907        1.14894619612309        1.58899833954051
O            1.03504884976127        2.40349506006674        2.07011323591295
C            2.98932244035860        1.07869286647356        1.57864820291712
O            3.48645337328801        1.00094567197337        2.88734881028987
H            5.11430722105653       -1.55919565329235       -0.72938682593675
H            5.25747997967638       -2.10645220749044        0.96720816841591
H            6.53451431751584       -1.08267238103140        0.24711836553743
H            3.15943442303605       -1.06898612992225        1.35253822664072
H            1.24431876572353       -1.26964736366131       -0.07816937015463
H            1.63555256474798       -1.13687947320931       -2.51751104744500
H            0.06956097852017       -0.38232075418514       -2.12209740385820
H            2.47127822205888        1.01327549670556       -2.57932653454842
H            0.78617987851010        1.70605275056356       -0.40242431051884
H           -1.20772935966902        2.28903134552875        0.35796665885954
H           -1.95246743048834       -0.91156657963021       -1.12744895807834
H           -4.06551443112899        0.69960238386556       -2.63848755429651
H           -3.89555605134120       -1.07219713171035       -2.75528452887822
H           -1.92633859975793        0.80739039723975       -3.48512819245640
H           -4.65814096530069        0.18077375115016       -0.19291867231680
H           -3.64557933836825       -2.45333849854531       -0.29497565704239
H           -2.38800816392026       -1.10417570175587        1.41876095443754
H           -4.74266512137032       -1.27517903624704        2.05702730015820
H           -3.39697306997479        1.77475391160289        1.32035338525102
H           -2.55645503363079        0.91618665311389        3.37293575364339
H            1.07452347108889        0.42569152260748        2.32112100534978
H            1.35298799065569        3.10341227984825        1.47908353098201
H            3.40213254627978        1.95952170628189        1.06144231711589
H            3.09188402115691        1.71585078376539        3.41298908478789
