48
 energy: -84.749325259734 gnorm: 0.000688593478 xtb: 6.7.1 (edcfbbe)
C            5.49372288582233       -0.70087798780188       -0.33133733584177
O            4.72485842240316        0.30122168478844        0.32576083757007
C            3.44286740502081       -0.09870936927373        0.67960214460477
O            2.69618578202719       -0.35447067374355       -0.47162674659647
C            1.30694924344288       -0.77653160801428       -0.18780712043656
C            0.58003652005235       -1.38137948665090       -1.33675695417029
O            0.60536643227289       -0.46386562747385       -2.57456067247390
C            0.63728804422525        0.44400885565977        0.47721568269986
O           -0.73566784412951        0.16358642303949        0.64547174430081
C           -1.63050777783636        1.21231681386050        0.39601101955683
O           -2.17223375989820        1.09767558988254       -0.89180326345469
C           -2.67337419098891       -0.21362042615770       -1.16130333614119
C           -2.96007128494307       -0.25043117286945       -2.66349077155423
O           -1.85446707926753        0.27634813099915       -3.37057231235470
C           -3.89124332497517       -0.46836609025347       -0.27165464598293
O           -4.37889711589397       -1.75925530821871       -0.51973581508657
C           -3.46240863348161       -0.29132574223966        1.19543570173833
O           -4.61100968026970       -0.41850063036520        2.00330053921825
C           -2.78640925026375        1.07823922853431        1.40729385953904
O           -2.36671278815355        1.23225094047830        2.73809352330438
C            1.34060283737091        0.73891821744811        1.80189305721756
O            0.71426054352024        1.83114256660476        2.42981257140220
C            2.82446399248491        1.03156834396035        1.52339146726437
O            3.51911145144412        1.26366253427875        2.71897662587101
H            5.00426981578207       -1.01391587905601       -1.25527375576623
H            5.62802207976468       -1.56694424732915        0.32390604345872
H            6.45087160081395       -0.23520293678407       -0.54518792446002
H            3.48394825437700       -1.03036708523723        1.29474263965812
H            1.35642465326743       -1.58203529918421        0.56167679819934
H            1.18620625324629       -2.23735452117583       -1.68406302714261
H            1.16609448984174        0.31657871538746       -2.43049029320603
H           -0.34493152418277       -0.20774867474383       -2.82826401797442
H            0.75643602774275        1.32233002605867       -0.17142730263008
H           -1.15660049291978        2.19634247532259        0.46431742657017
H           -1.88853699704510       -0.95041271717295       -0.92944584320263
H           -3.86320724899810        0.32163553143952       -2.89152468299670
H           -3.09281658153643       -1.28335062437390       -2.98062049299520
H           -1.82468180536366        1.22694596068954       -3.18111071115908
H           -4.66869740085962        0.28259084567678       -0.49158323119552
H           -5.03836969349921       -1.96881826991161        0.15872060077474
H           -2.73524985167437       -1.08082965993371        1.44108949674206
H           -4.39572061985375       -0.09357211316004        2.88994211508571
H           -3.52006805354077        1.86974149276194        1.21369529439428
H           -1.45950316214153        0.90219186494147        2.81998125488225
H            1.26477657640717       -0.15340759763919        2.44682444237654
H            1.32147094060992        2.20015767934458        3.09120858721285
H            2.91055350166871        1.96085509719187        0.94934374530674
H            3.68943142273499        0.42939675513344        3.18013311226882
