48
 energy: -84.861968757157 gnorm: 0.000604673584 xtb: 6.7.1 (edcfbbe)
C            5.63879033677689       -0.81745221441627        0.03415783133345
O            4.84578124076639        0.23979810044127        0.56929233934856
C            3.50779049260533       -0.06657756207039        0.73562186393936
O            2.90810073444528       -0.23654750012566       -0.53092924199306
C            1.52836897838422       -0.54702483762833       -0.47867084353620
C            1.05786271379607       -0.68836994973181       -1.93459673634685
O            1.18346129128889        0.51165695222249       -2.64758816642368
C            0.74532024865883        0.55926375466339        0.24560614857834
O           -0.59886838826283        0.14367212483505        0.41672083542697
C           -1.58336009910460        1.12834831999951        0.21815718242055
O           -2.16662432107049        1.02319053359330       -1.04810405545475
C           -2.86308269496406       -0.20291150187482       -1.26207045538892
C           -3.38234148656034       -0.18045434529691       -2.70139502796517
O           -2.34438834228459       -0.25404994795460       -3.64359644160322
C           -3.99665205580595       -0.36875814878499       -0.24448480549470
O           -4.62432024139432       -1.60102575012814       -0.47614389989045
C           -3.41259981577055       -0.29253833890459        1.17223756268534
O           -4.48009796475416       -0.38021297175910        2.08448526883926
C           -2.63178133824944        1.01666794961915        1.33600247615706
O           -2.04863053405013        1.04508005708468        2.61381767227462
C            1.35921390643306        0.83849846730684        1.62422596805356
O            0.68644045174407        1.93346236906649        2.20229936550478
C            2.85887537087856        1.10521536680231        1.48875514510270
O            3.38526731822964        1.25006756099960        2.77996525983355
H            5.28554276544233       -1.09718957577269       -0.95866026286349
H            5.60618348572999       -1.68689897975012        0.69636222420306
H            6.64804054213270       -0.42054620408222       -0.02061037291440
H            3.38218589385560       -1.00012597053588        1.32450023328844
H            1.37132312778341       -1.49522782300063        0.05606243657290
H            1.63133716173695       -1.49060281512814       -2.41137511600454
H           -0.00079432938009       -0.94892179405605       -1.94541840181887
H            2.12375244045036        0.73339323917348       -2.71113470855504
H            0.78651814165953        1.47099012475527       -0.36269433921293
H           -1.13413962132318        2.12981362302587        0.23991867240130
H           -2.16917348099721       -1.04627956968262       -1.14126417935211
H           -3.97707174397954        0.72988380995016       -2.84366494938303
H           -4.01057633166455       -1.05844511104125       -2.85718645511614
H           -1.75326892493074        0.50178072294682       -3.51195892111539
H           -4.71627500571656        0.45694895494513       -0.36543316326490
H           -5.23828142504746       -1.76744972741735        0.25669967248086
H           -2.71340352927280       -1.13016084967207        1.31915929359306
H           -4.14093620858417       -0.18683865865653        2.97092266549477
H           -3.33353304379400        1.85970875415593        1.22729533746852
H           -1.15900674207134        1.44146363835545        2.56278288658610
H            1.21812772030875       -0.05299118159532        2.25495700309290
H            1.19557672012441        2.21860975121755        2.97891035896823
H            3.01940528574029        2.01601385192587        0.89322757763371
H            4.34316630843886        1.38369729324143        2.72228732170196
