      -----------------------------------------------------------      
     |                   =====================                   |     
     |                           x T B                           |     
     |                   =====================                   |     
     |                         S. Grimme                         |     
     |          Mulliken Center for Theoretical Chemistry        |     
     |                    University of Bonn                     |     
      -----------------------------------------------------------      

   * xtb version 6.7.1 (edcfbbe) compiled by 'conda@5dfe00f5fb80' on 2026-06-10

   xtb is free software: you can redistribute it and/or modify it under
   the terms of the GNU Lesser General Public License as published by
   the Free Software Foundation, either version 3 of the License, or
   (at your option) any later version.
   
   xtb is distributed in the hope that it will be useful,
   but WITHOUT ANY WARRANTY; without even the implied warranty of
   MERCHANTABILITY or FITNESS FOR A PARTICULAR PURPOSE.  See the
   GNU Lesser General Public License for more details.
   
   Cite this work as:
   * C. Bannwarth, E. Caldeweyher, S. Ehlert, A. Hansen, P. Pracht,
     J. Seibert, S. Spicher, S. Grimme, WIREs Comput. Mol. Sci., 2020, 11,
     e01493. DOI: 10.1002/wcms.1493
   
   for GFN2-xTB:
   * C. Bannwarth, S. Ehlert and S. Grimme., J. Chem. Theory Comput., 2019,
     15, 1652-1671. DOI: 10.1021/acs.jctc.8b01176
   for GFN1-xTB:
   * S. Grimme, C. Bannwarth, P. Shushkov, J. Chem. Theory Comput., 2017,
     13, 1989-2009. DOI: 10.1021/acs.jctc.7b00118
   for GFN0-xTB:
   * P. Pracht, E. Caldeweyher, S. Ehlert, S. Grimme, ChemRxiv, 2019, preprint.
     DOI: 10.26434/chemrxiv.8326202.v1
   for GFN-FF:
   * S. Spicher and S. Grimme, Angew. Chem. Int. Ed., 2020, 59, 15665-15673.
     DOI: 10.1002/anie.202004239
   
   for ALPB and GBSA implicit solvation:
   * S. Ehlert, M. Stahn, S. Spicher, S. Grimme, J. Chem. Theory Comput.,
     2021, 17, 4250-4261. DOI: 10.1021/acs.jctc.1c00471
   
   for ddCOSMO and CPCM-X implicit solvation:
   * M. Stahn, S. Ehlert, S. Grimme, J. Phys. Chem. A,
     2023, XX, XXXX-XXXX. DOI: 10.1021/acs.jpca.3c04382
   
   for DFT-D4:
   * E. Caldeweyher, C. Bannwarth and S. Grimme, J. Chem. Phys., 2017,
     147, 034112. DOI: 10.1063/1.4993215
   * E. Caldeweyher, S. Ehlert, A. Hansen, H. Neugebauer, S. Spicher,
     C. Bannwarth and S. Grimme, J. Chem. Phys., 2019, 150, 154122.
     DOI: 10.1063/1.5090222
   * E. Caldeweyher, J.-M. Mewes, S. Ehlert and S. Grimme, Phys. Chem. Chem. Phys.
     2020, 22, 8499-8512. DOI: 10.1039/D0CP00502A
   
   for sTDA-xTB:
   * S. Grimme and C. Bannwarth, J. Chem. Phys., 2016, 145, 054103.
     DOI: 10.1063/1.4959605
   
   in the mass-spec context:
   * V. Asgeirsson, C. Bauer and S. Grimme, Chem. Sci., 2017, 8, 4879.
     DOI: 10.1039/c7sc00601b
   * J. Koopman and S. Grimme, ACS Omega 2019, 4, 12, 15120-15133.
     DOI: 10.1021/acsomega.9b02011
   
   for metadynamics refer to:
   * S. Grimme, J. Chem. Theory Comput., 2019, 155, 2847-2862
     DOI: 10.1021/acs.jctc.9b00143
   
   for SPH calculations refer to:
   * S. Spicher and S. Grimme, J. Chem. Theory Comput., 2021, 17, 1701-1714
     DOI: 10.1021/acs.jctc.0c01306
   
   for ONIOM refer to:
   * C. Plett, A. Katbashev, S. Ehlert, S. Grimme, M. Bursch,
     Phys. Chem. Chem. Phys., 2023, 25, 17860-17868. DOI: 10.1039/D3CP02178E
   
   for DIPRO refer to:
   * J. Kohn, N. Gildemeister, S. Grimme, D. Fazzi, A. Hansen,
     J. Chem. Phys., 2023, just accepted.
   
   for PTB refer to:
   * S. Grimme, M. Mueller, A. Hansen, J. Chem. Phys., 2023, 158, 124111.
     DOI: 10.1063/5.0137838
   
   with help from (in alphabetical order)
   P. Atkinson, C. Bannwarth, F. Bohle, G. Brandenburg, E. Caldeweyher
   M. Checinski, S. Dohm, S. Ehlert, S. Ehrlich, I. Gerasimov, C. Hölzer
   A. Katbashev, J. Kohn, J. Koopman, C. Lavigne, S. Lehtola, F. März, M. Müller,
   F. Musil, H. Neugebauer, J. Pisarek, C. Plett, P. Pracht, F. Pultar,
   J. Seibert, P. Shushkov, S. Spicher, M. Stahn, M. Steiner, T. Strunk,
   J. Stückrath, T. Rose, and J. Unsleber
   
 * started run on 2026/09/22 at 13:21:13.277     
   ID    Z sym.   atoms
    1    6 C      1, 3, 5, 6, 8, 10, 12, 13, 15, 17, 19, 21, 23
    2    8 O      2, 4, 7, 9, 11, 14, 16, 18, 20, 22, 24
    3    1 H      25-48
constraining angle 11 10 9 8 to  -40.0000000°, actual value:  -40.8234164°
constraining angle 10 9 8 5 to -120.0000000°, actual value: -122.2101319°

           -------------------------------------------------
          |                Calculation Setup                |
           -------------------------------------------------

          program call               : /media/aldo/Aldo/envs/chem/bin/xtb start.xyz --gfn 2 --opt normal --input c.inp
          coordinate file            : start.xyz
          omp threads                :                     1


           -------------------------------------------------
          |                 G F N 2 - x T B                 |
           -------------------------------------------------

        Reference                      10.1021/acs.jctc.8b01176
      * Hamiltonian:
        H0-scaling (s, p, d)           1.850000    2.230000    2.230000
        zeta-weighting                 0.500000
      * Dispersion:
        s8                             2.700000
        a1                             0.520000
        a2                             5.000000
        s9                             5.000000
      * Repulsion:
        kExp                           1.500000    1.000000
        rExp                           1.000000
      * Coulomb:
        alpha                          2.000000
        third order                    shell-resolved
        anisotropic                    true
        a3                             3.000000
        a5                             4.000000
        cn-shift                       1.200000
        cn-exp                         4.000000
        max-rad                        5.000000


          ...................................................
          :                      SETUP                      :
          :.................................................:
          :  # basis functions                 120          :
          :  # atomic orbitals                 120          :
          :  # shells                           72          :
          :  # electrons                       142          :
          :  max. iterations                   250          :
          :  Hamiltonian                  GFN2-xTB          :
          :  restarted?                      false          :
          :  GBSA solvation                  false          :
          :  PC potential                    false          :
          :  electronic temp.          300.0000000     K    :
          :  accuracy                    1.0000000          :
          :  -> integral cutoff          0.2500000E+02      :
          :  -> integral neglect         0.1000000E-07      :
          :  -> SCF convergence          0.1000000E-05 Eh   :
          :  -> wf. convergence          0.1000000E-03 e    :
          :  Broyden damping             0.4000000          :
          :  net charge                          0          :
          :  unpaired electrons                  0          :
          ...................................................

 iter      E             dE          RMSdq      gap      omega  full diag
   1    -85.3244585 -0.853245E+02  0.462E+00    9.54       0.0  T
   2    -85.4121763 -0.877178E-01  0.250E+00    9.17       1.0  T
   3    -85.4142955 -0.211922E-02  0.770E-01    9.25       1.0  T
   4    -85.4157496 -0.145402E-02  0.137E-01    9.19       1.0  T
   5    -85.4158814 -0.131837E-03  0.683E-02    9.22       1.0  T
   6    -85.4158946 -0.132072E-04  0.149E-02    9.22       1.0  T
   7    -85.4158963 -0.169215E-05  0.595E-03    9.22       2.4  T
   8    -85.4158966 -0.284884E-06  0.169E-03    9.22       8.6  T
   9    -85.4158966 -0.962162E-08  0.670E-04    9.22      21.5  T
  10    -85.4158966 -0.289825E-08  0.160E-04    9.22      90.4  T

   *** convergence criteria satisfied after 10 iterations ***

         #    Occupation            Energy/Eh            Energy/eV
      -------------------------------------------------------------
         1        2.0000           -0.7470303             -20.3277
       ...           ...                  ...                  ...
        65        2.0000           -0.4339165             -11.8075
        66        2.0000           -0.4304221             -11.7124
        67        2.0000           -0.4295928             -11.6898
        68        2.0000           -0.4233810             -11.5208
        69        2.0000           -0.4209557             -11.4548
        70        2.0000           -0.4199970             -11.4287
        71        2.0000           -0.4052959             -11.0287 (HOMO)
        72                         -0.0663786              -1.8063 (LUMO)
        73                         -0.0500630              -1.3623
        74                         -0.0188082              -0.5118
        75                         -0.0130647              -0.3555
        76                         -0.0038795              -0.1056
       ...                                ...                  ...
       120                          0.3131500               8.5212
      -------------------------------------------------------------
                  HL-Gap            0.3389173 Eh            9.2224 eV
             Fermi-level           -0.2358373 Eh           -6.4175 eV

 SCC (total)                   0 d,  0 h,  0 min,  0.266 sec
 SCC setup                      ...        0 min,  0.001 sec (  0.310%)
 Dispersion                     ...        0 min,  0.002 sec (  0.799%)
 classical contributions        ...        0 min,  0.000 sec (  0.181%)
 integral evaluation            ...        0 min,  0.032 sec ( 11.947%)
 iterations                     ...        0 min,  0.118 sec ( 44.214%)
 molecular gradient             ...        0 min,  0.112 sec ( 42.085%)
 printout                       ...        0 min,  0.001 sec (  0.451%)

         :::::::::::::::::::::::::::::::::::::::::::::::::::::
         ::                     SUMMARY                     ::
         :::::::::::::::::::::::::::::::::::::::::::::::::::::
         :: total energy             -84.794181131520 Eh    ::
         :: gradient norm              0.000602606290 Eh/a0 ::
         :: HOMO-LUMO gap              9.222408595607 eV    ::
         ::.................................................::
         :: SCC energy               -85.414671540623 Eh    ::
         :: -> isotropic ES            0.235645679506 Eh    ::
         :: -> anisotropic ES         -0.004755766408 Eh    ::
         :: -> anisotropic XC         -0.017468369732 Eh    ::
         :: -> dispersion             -0.047702658898 Eh    ::
         :: repulsion energy           0.620066832463 Eh    ::
         :: add. restraining           0.000423576640 Eh    ::
         :: total charge               0.000000000000 e     ::
         :::::::::::::::::::::::::::::::::::::::::::::::::::::

      ----------------------------------------------------------- 
     |                   =====================                   |
     |                        A N C O P T                        |
     |                   =====================                   |
     |               Approximate Normal Coordinate               |
     |                Rational Function Optimizer                |
      ----------------------------------------------------------- 
      ----------------------------------------------------------- 
     |                   =====================                   |
     |                        A N C O P T                        |
     |                   =====================                   |
     |               Approximate Normal Coordinate               |
     |                Rational Function Optimizer                |
      ----------------------------------------------------------- 

          ...................................................
          :                      SETUP                      :
          :.................................................:
          :   optimization level            normal          :
          :   max. optcycles                   200          :
          :   ANC micro-cycles                  20          :
          :   degrees of freedom               138          :
          :.................................................:
          :   RF solver                   davidson          :
          :   write xtbopt.log                true          :
          :   linear?                        false          :
          :   energy convergence         0.5000000E-05 Eh   :
          :   grad. convergence          0.1000000E-02 Eh/α :
          :   maxmium RF displ.          1.0000000          :
          :   Hlow (freq-cutoff)         0.1000000E-01      :
          :   Hmax (freq-cutoff)         5.0000000          :
          :   S6 in model hess.         20.0000000          :
          ...................................................

generating ANC from exact Hessian ...
Using Lindh-Hessian (1995)
 Shifting diagonal of input Hessian by    9.7094273532314576E-003
 Lowest  eigenvalues of input Hessian
    0.000000    0.000000    0.000000    0.000000    0.000000    0.000000
    0.010000    0.010288    0.010814    0.010948    0.012210    0.012624
    0.013345    0.013986    0.014604    0.014987    0.015206    0.015532
 Highest eigenvalues
    1.530978    1.560303    1.607401    1.689745    1.740971    1.913691


........................................................................
.............................. CYCLE    1 ..............................
........................................................................

 iter      E             dE          RMSdq      gap      omega  full diag
   1    -85.4158966 -0.854159E+02  0.637E-05    9.22       0.0  T
   2    -85.4158966 -0.266027E-10  0.371E-05    9.22     389.1  T
   3    -85.4158966 -0.370903E-11  0.172E-05    9.22     840.7  T
     SCC iter.                  ...        0 min,  0.047 sec
     gradient                   ...        0 min,  0.116 sec
 * total energy  :   -84.7941811 Eh     change       -0.1952571E-09 Eh
   gradient norm :     0.0006037 Eh/α   predicted     0.0000000E+00 (-100.00%)
   displ. norm   :     0.0163733 α      lambda       -0.3552580E-06
   maximum displ.:     0.0101739 α      in ANC's #1, #3, #7, ...

   *** GEOMETRY OPTIMIZATION CONVERGED AFTER 1 ITERATIONS ***

------------------------------------------------------------------------
 total energy gain   :        -0.0000000 Eh       -0.0000 kcal/mol
 total RMSD          :         0.0000000 a0        0.0000 Å
 total power (kW/mol):        -0.0000005 (step)   -0.0000 (real)
------------------------------------------------------------------------

 ANCopt (total)                0 d,  0 h,  0 min,  0.350 sec
 optimizer setup                ...        0 min,  0.000 sec (  0.081%)
 model hessian                  ...        0 min,  0.136 sec ( 38.985%)
 ANC generation                 ...        0 min,  0.011 sec (  3.071%)
 coordinate transformation      ...        0 min,  0.000 sec (  0.084%)
 single point calculation       ...        0 min,  0.201 sec ( 57.328%)
 optimization log               ...        0 min,  0.000 sec (  0.111%)
 hessian update                 ...        0 min,  0.000 sec (  0.001%)
 rational function              ...        0 min,  0.000 sec (  0.098%)

================
 final structure:
================
48
 xtb: 6.7.1 (edcfbbe)
C            5.12111000000000       -0.21450200000000       -1.46561000000000
O            4.04897600000000        0.70688300000000       -1.43179800000000
C            3.28514800000000        0.65735400000000       -0.28539400000000
O            2.51527900000000       -0.52903000000000       -0.31354600000000
C            1.64592600000000       -0.69542700000000        0.79178400000000
C            1.08364900000000       -2.11097800000000        0.66556400000000
O            2.10267000000000       -3.06518300000000        0.76940300000000
C            0.59461800000000        0.43013900000000        0.78913000000000
O           -0.28209200000000        0.35014100000000        1.89831800000000
C           -1.67381700000000        0.24037600000000        1.77941100000000
O           -2.22570000000000        1.04691900000000        0.77150000000000
C           -2.52249900000000        0.54252200000000       -0.52424100000000
C           -3.27583400000000        1.69183300000000       -1.21353100000000
O           -2.49160700000000        2.85247700000000       -1.22055600000000
C           -3.31756900000000       -0.76113500000000       -0.46248100000000
O           -3.61625400000000       -1.28151800000000       -1.73256200000000
C           -2.50283700000000       -1.76139100000000        0.36677400000000
O           -3.18521400000000       -2.98386500000000        0.51521700000000
C           -2.27551500000000       -1.19072700000000        1.77246600000000
O           -1.47998600000000       -2.03290100000000        2.55207900000000
C            1.30144400000000        1.79417000000000        0.82567700000000
O            0.40642900000000        2.87162300000000        0.70223400000000
C            2.38297400000000        1.89687600000000       -0.26524400000000
O            3.18391000000000        3.02283100000000       -0.03679900000000
H            4.75687100000000       -1.24553100000000       -1.47565300000000
H            5.78380800000000       -0.07195600000000       -0.60524300000000
H            5.66218500000000       -0.00658700000000       -2.38555200000000
H            3.91862100000000        0.66038900000000        0.62586500000000
H            2.21767000000000       -0.62843100000000        1.73123500000000
H            0.58427300000000       -2.20087600000000       -0.31175200000000
H            0.38157500000000       -2.30029300000000        1.47815500000000
H            2.80484800000000       -2.80195300000000        0.16151400000000
H            0.05084700000000        0.36011000000000       -0.15942000000000
H           -2.00584900000000        0.70982800000000        2.71761400000000
H           -1.60259100000000        0.35070400000000       -1.10308700000000
H           -4.22490800000000        1.85758900000000       -0.68990800000000
H           -3.47885400000000        1.43445300000000       -2.25425300000000
H           -2.34073400000000        3.10298900000000       -0.29917600000000
H           -4.28715300000000       -0.59136700000000        0.01806000000000
H           -2.80314400000000       -1.36949700000000       -2.24640400000000
H           -1.53529000000000       -1.93921900000000       -0.13057300000000
H           -3.66885800000000       -3.15623400000000       -0.30357200000000
H           -3.27921600000000       -1.09781300000000        2.22445500000000
H           -1.85667600000000       -2.92132400000000        2.48797600000000
H            1.76649100000000        1.91886700000000        1.80966700000000
H           -0.15773500000000        2.73669900000000       -0.07188100000000
H            1.89851300000000        1.96288500000000       -1.25496100000000
H            2.59209400000000        3.75907600000000        0.17258100000000

 Bond Distances (Angstroems)
 ---------------------------
C1-O2=1.4141         C1-H25=1.0935        C1-H26=1.0953        C1-H27=1.0873        O2-C1=1.4141         O2-C3=1.3785         
C3-O2=1.3785         C3-O4=1.4146         C3-C23=1.5332        C3-H28=1.1098        O4-C3=1.4146         O4-C5=1.4161         
C5-O4=1.4161         C5-C6=1.5284         C5-C8=1.5402         C5-H29=1.1018        C6-C5=1.5284         C6-O7=1.3999         
C6-H30=1.1012        C6-H31=1.0904        O7-C6=1.3999         O7-H32=0.9653        C8-C5=1.5402         C8-O9=1.4161         
C8-C21=1.5367        C8-H33=1.0956        O9-C8=1.4161         O9-C10=1.4011        C10-O9=1.4011        C10-O11=1.4039       
C10-C19=1.5525       C10-H34=1.1004       O11-C10=1.4039       O11-C12=1.4218       C12-O11=1.4218       C12-C13=1.5374       
C12-C15=1.5282       C12-H35=1.1037       C13-C12=1.5374       C13-O14=1.4008       C13-H36=1.0965       C13-H37=1.0911       
O14-C13=1.4008       O14-H38=0.9667       C15-C12=1.5282       C15-O16=1.4047       C15-C17=1.5336       C15-H39=1.0954       
O16-C15=1.4047       O16-H40=0.9659       C17-C15=1.5336       C17-O18=1.4079       C17-C19=1.5340       C17-H41=1.1023       
O18-C17=1.4079       O18-H42=0.9665       C19-C10=1.5525       C19-C17=1.5340       C19-O20=1.3964       C19-H43=1.1047       
O20-C19=1.3964       O20-H44=0.9671       C21-C8=1.5367        C21-O22=1.4061       C21-C23=1.5396       C21-H45=1.0955       
O22-C21=1.4061       O22-H46=0.9673       C23-C3=1.5332        C23-C21=1.5396       C23-O24=1.4005       C23-H47=1.1039       
O24-C23=1.4005       O24-H48=0.9675       H25-C1=1.0935        H26-C1=1.0953        H27-C1=1.0873        H28-C3=1.1098        
H29-C5=1.1018        H30-C6=1.1012        H31-C6=1.0904        H32-O7=0.9653        H33-C8=1.0956        H34-C10=1.1004       
H35-C12=1.1037       H36-C13=1.0965       H37-C13=1.0911       H38-O14=0.9667       H39-C15=1.0954       H40-O16=0.9659       
H41-C17=1.1023       H42-O18=0.9665       H43-C19=1.1047       H44-O20=0.9671       H45-C21=1.0955       H46-O22=0.9673       
H47-C23=1.1039       H48-O24=0.9675       
 C  H  Rav=1.0981 sigma=0.0058  Rmin=1.0873  Rmax=1.1098    17
 C  C  Rav=1.5364 sigma=0.0066  Rmin=1.5282  Rmax=1.5525    10
 O  H  Rav=0.9666 sigma=0.0007  Rmin=0.9653  Rmax=0.9675     7
 O  C  Rav=1.4055 sigma=0.0102  Rmin=1.3785  Rmax=1.4218    15

 selected bond angles (degree)
 --------------------
H25-C1-O2=111.22               H26-C1-O2=110.80               H26-C1-H25=109.36              H27-C1-O2=105.84               
H27-C1-H25=109.77              H27-C1-H26=109.79              C3-O2-C1=114.62                O4-C3-O2=108.37                
C23-C3-O2=107.93               C23-C3-O4=110.98               H28-C3-O2=111.50               H28-C3-O4=109.23               
H28-C3-C23=108.84              C5-O4-C3=114.65                C6-C5-O4=105.68                C8-C5-O4=109.38                
C8-C5-C6=115.19                H29-C5-O4=109.87               H29-C5-C6=108.52               H29-C5-C8=108.13               
O7-C6-C5=110.94                H30-C6-C5=108.41               H30-C6-O7=109.89               H31-C6-C5=109.64               
H31-C6-O7=107.16               H31-C6-H30=110.81              H32-O7-C6=107.27               O9-C8-C5=112.33                
C21-C8-C5=109.55               C21-C8-O9=108.44               H33-C8-C5=107.07               H33-C8-O9=111.55               
H33-C8-C21=107.80              C10-O9-C8=123.57               O11-C10-O9=113.98              C19-C10-O9=117.23              
C19-C10-O11=111.96             H34-C10-O9=101.18              H34-C10-O11=104.38             H34-C10-C19=106.27             

 selected dihedral angles (degree)
 ---------------------------------
C3-O2-C1-H25= 64.74           C3-O2-C1-H26=302.87           C3-O2-C1-H27=183.91           O4-C3-O2-C1=287.93            
C23-C3-O2-C1=167.66           H28-C3-O2-C1= 48.18           C5-O4-C3-O2=181.77            C5-O4-C3-C23=300.12           
C5-O4-C3-H28= 60.12           C6-C5-O4-C3=188.27            C8-C5-O4-C3= 63.70            H29-C5-O4-C3=305.15           
O7-C6-C5-O4= 63.20            O7-C6-C5-C8=184.05            O7-C6-C5-H29=305.40           H30-C6-C5-O4=302.44           
H30-C6-C5-C8= 63.30           H30-C6-C5-H29=184.65          H31-C6-C5-O4=181.36           H31-C6-C5-C8=302.22           
H31-C6-C5-H29= 63.57          H32-O7-C6-C5=310.08           H32-O7-C6-H30= 69.95          H32-O7-C6-H31=190.43          
O9-C8-C5-O4=182.04            O9-C8-C5-C6= 63.22            O9-C8-C5-H29=301.66           C21-C8-C5-O4=302.62           
C21-C8-C5-C6=183.80           C21-C8-C5-H29= 62.24          H33-C8-C5-O4= 59.26           H33-C8-C5-C6=300.44           
H33-C8-C5-H29=178.88          C10-O9-C8-C5=237.79           C10-O9-C8-C21=116.57          C10-O9-C8-H33=358.02          
O11-C10-O9-C8=319.18          C19-C10-O9-C8= 92.75          H34-C10-O9-C8=207.77          
           -------------------------------------------------
          |                Final Singlepoint                |
           -------------------------------------------------

          ...................................................
          :                      SETUP                      :
          :.................................................:
          :  # basis functions                 120          :
          :  # atomic orbitals                 120          :
          :  # shells                           72          :
          :  # electrons                       142          :
          :  max. iterations                   250          :
          :  Hamiltonian                  GFN2-xTB          :
          :  restarted?                      false          :
          :  GBSA solvation                  false          :
          :  PC potential                    false          :
          :  electronic temp.          300.0000000     K    :
          :  accuracy                    1.0000000          :
          :  -> integral cutoff          0.2500000E+02      :
          :  -> integral neglect         0.1000000E-07      :
          :  -> SCF convergence          0.1000000E-05 Eh   :
          :  -> wf. convergence          0.1000000E-03 e    :
          :  Broyden damping             0.4000000          :
          :  net charge                          0          :
          :  unpaired electrons                  0          :
          ...................................................

 iter      E             dE          RMSdq      gap      omega  full diag
   1    -85.4158966 -0.854159E+02  0.468E-06    9.22       0.0  T
   2    -85.4158966 -0.994760E-13  0.280E-06    9.22    5161.2  T
   3    -85.4158966  0.284217E-13  0.120E-06    9.22   12066.1  T

   *** convergence criteria satisfied after 3 iterations ***

         #    Occupation            Energy/Eh            Energy/eV
      -------------------------------------------------------------
         1        2.0000           -0.7470306             -20.3277
       ...           ...                  ...                  ...
        65        2.0000           -0.4339171             -11.8075
        66        2.0000           -0.4304222             -11.7124
        67        2.0000           -0.4295930             -11.6898
        68        2.0000           -0.4233811             -11.5208
        69        2.0000           -0.4209562             -11.4548
        70        2.0000           -0.4199973             -11.4287
        71        2.0000           -0.4052959             -11.0287 (HOMO)
        72                         -0.0663789              -1.8063 (LUMO)
        73                         -0.0500632              -1.3623
        74                         -0.0188084              -0.5118
        75                         -0.0130651              -0.3555
        76                         -0.0038796              -0.1056
       ...                                ...                  ...
       120                          0.3131501               8.5212
      -------------------------------------------------------------
                  HL-Gap            0.3389169 Eh            9.2224 eV
             Fermi-level           -0.2358374 Eh           -6.4175 eV

 SCC (total)                   0 d,  0 h,  0 min,  0.185 sec
 SCC setup                      ...        0 min,  0.001 sec (  0.350%)
 Dispersion                     ...        0 min,  0.001 sec (  0.568%)
 classical contributions        ...        0 min,  0.000 sec (  0.258%)
 integral evaluation            ...        0 min,  0.034 sec ( 18.257%)
 iterations                     ...        0 min,  0.037 sec ( 19.843%)
 molecular gradient             ...        0 min,  0.111 sec ( 60.131%)
 printout                       ...        0 min,  0.001 sec (  0.575%)

         :::::::::::::::::::::::::::::::::::::::::::::::::::::
         ::                     SUMMARY                     ::
         :::::::::::::::::::::::::::::::::::::::::::::::::::::
         :: total energy             -84.794181131716 Eh    ::
         :: gradient norm              0.000603802857 Eh/a0 ::
         :: HOMO-LUMO gap              9.222398945873 eV    ::
         ::.................................................::
         :: SCC energy               -85.414671540820 Eh    ::
         :: -> isotropic ES            0.235647487457 Eh    ::
         :: -> anisotropic ES         -0.004755529295 Eh    ::
         :: -> anisotropic XC         -0.017468376466 Eh    ::
         :: -> dispersion             -0.047702634413 Eh    ::
         :: repulsion energy           0.620066832463 Eh    ::
         :: add. restraining           0.000423576640 Eh    ::
         :: total charge               0.000000000000 e     ::
         :::::::::::::::::::::::::::::::::::::::::::::::::::::

========================================================================
 RELAXED SCAN
------------------------------------------------------------------------
 output written to xtbscan.log
 scaning constraint 2
... step 1 ...
      ----------------------------------------------------------- 
     |                   =====================                   |
     |                        A N C O P T                        |
     |                   =====================                   |
     |               Approximate Normal Coordinate               |
     |                Rational Function Optimizer                |
      ----------------------------------------------------------- 
 current energy:         -84.79418113
    bias energy:           0.00042358
unbiased energy:         -84.79460471
... step 2 ...
      ----------------------------------------------------------- 
     |                   =====================                   |
     |                        A N C O P T                        |
     |                   =====================                   |
     |               Approximate Normal Coordinate               |
     |                Rational Function Optimizer                |
      ----------------------------------------------------------- 
 current energy:         -84.79093842
    bias energy:           0.00030604
unbiased energy:         -84.79124446
... step 3 ...
      ----------------------------------------------------------- 
     |                   =====================                   |
     |                        A N C O P T                        |
     |                   =====================                   |
     |               Approximate Normal Coordinate               |
     |                Rational Function Optimizer                |
      ----------------------------------------------------------- 
 current energy:         -84.78807910
    bias energy:           0.00026858
unbiased energy:         -84.78834768
... step 4 ...
      ----------------------------------------------------------- 
     |                   =====================                   |
     |                        A N C O P T                        |
     |                   =====================                   |
     |               Approximate Normal Coordinate               |
     |                Rational Function Optimizer                |
      ----------------------------------------------------------- 
 current energy:         -84.78492370
    bias energy:           0.00038389
unbiased energy:         -84.78530759
... step 5 ...
      ----------------------------------------------------------- 
     |                   =====================                   |
     |                        A N C O P T                        |
     |                   =====================                   |
     |               Approximate Normal Coordinate               |
     |                Rational Function Optimizer                |
      ----------------------------------------------------------- 
 current energy:         -84.78758341
    bias energy:           0.00006605
unbiased energy:         -84.78764946
... step 6 ...
      ----------------------------------------------------------- 
     |                   =====================                   |
     |                        A N C O P T                        |
     |                   =====================                   |
     |               Approximate Normal Coordinate               |
     |                Rational Function Optimizer                |
      ----------------------------------------------------------- 
 current energy:         -84.79179579
    bias energy:           0.00030420
unbiased energy:         -84.79209999
... step 7 ...
      ----------------------------------------------------------- 
     |                   =====================                   |
     |                        A N C O P T                        |
     |                   =====================                   |
     |               Approximate Normal Coordinate               |
     |                Rational Function Optimizer                |
      ----------------------------------------------------------- 
 current energy:         -84.79251034
    bias energy:           0.00014472
unbiased energy:         -84.79265507
... step 8 ...
      ----------------------------------------------------------- 
     |                   =====================                   |
     |                        A N C O P T                        |
     |                   =====================                   |
     |               Approximate Normal Coordinate               |
     |                Rational Function Optimizer                |
      ----------------------------------------------------------- 
 current energy:         -84.79248885
    bias energy:           0.00004886
unbiased energy:         -84.79253771
... step 9 ...
      ----------------------------------------------------------- 
     |                   =====================                   |
     |                        A N C O P T                        |
     |                   =====================                   |
     |               Approximate Normal Coordinate               |
     |                Rational Function Optimizer                |
      ----------------------------------------------------------- 
 current energy:         -84.79161111
    bias energy:           0.00005112
unbiased energy:         -84.79166223
... step 10 ...
      ----------------------------------------------------------- 
     |                   =====================                   |
     |                        A N C O P T                        |
     |                   =====================                   |
     |               Approximate Normal Coordinate               |
     |                Rational Function Optimizer                |
      ----------------------------------------------------------- 
 current energy:         -84.79014257
    bias energy:           0.00013795
unbiased energy:         -84.79028052
... step 11 ...
      ----------------------------------------------------------- 
     |                   =====================                   |
     |                        A N C O P T                        |
     |                   =====================                   |
     |               Approximate Normal Coordinate               |
     |                Rational Function Optimizer                |
      ----------------------------------------------------------- 
 current energy:         -84.79052940
    bias energy:           0.00040185
unbiased energy:         -84.79093125
... step 12 ...
      ----------------------------------------------------------- 
     |                   =====================                   |
     |                        A N C O P T                        |
     |                   =====================                   |
     |               Approximate Normal Coordinate               |
     |                Rational Function Optimizer                |
      ----------------------------------------------------------- 
 current energy:         -84.78984472
    bias energy:           0.00012233
unbiased energy:         -84.78996706
... step 13 ...
      ----------------------------------------------------------- 
     |                   =====================                   |
     |                        A N C O P T                        |
     |                   =====================                   |
     |               Approximate Normal Coordinate               |
     |                Rational Function Optimizer                |
      ----------------------------------------------------------- 
 current energy:         -84.78999718
    bias energy:           0.00016648
unbiased energy:         -84.79016366
... step 14 ...
      ----------------------------------------------------------- 
     |                   =====================                   |
     |                        A N C O P T                        |
     |                   =====================                   |
     |               Approximate Normal Coordinate               |
     |                Rational Function Optimizer                |
      ----------------------------------------------------------- 
 current energy:         -84.79021198
    bias energy:           0.00014964
unbiased energy:         -84.79036162
... step 15 ...
      ----------------------------------------------------------- 
     |                   =====================                   |
     |                        A N C O P T                        |
     |                   =====================                   |
     |               Approximate Normal Coordinate               |
     |                Rational Function Optimizer                |
      ----------------------------------------------------------- 
 current energy:         -84.79920004
    bias energy:           0.00010405
unbiased energy:         -84.79930410
... step 16 ...
      ----------------------------------------------------------- 
     |                   =====================                   |
     |                        A N C O P T                        |
     |                   =====================                   |
     |               Approximate Normal Coordinate               |
     |                Rational Function Optimizer                |
      ----------------------------------------------------------- 
 current energy:         -84.80015739
    bias energy:           0.00006861
unbiased energy:         -84.80022600
... step 17 ...
      ----------------------------------------------------------- 
     |                   =====================                   |
     |                        A N C O P T                        |
     |                   =====================                   |
     |               Approximate Normal Coordinate               |
     |                Rational Function Optimizer                |
      ----------------------------------------------------------- 
 current energy:         -84.80058142
    bias energy:           0.00004201
unbiased energy:         -84.80062343
... step 18 ...
      ----------------------------------------------------------- 
     |                   =====================                   |
     |                        A N C O P T                        |
     |                   =====================                   |
     |               Approximate Normal Coordinate               |
     |                Rational Function Optimizer                |
      ----------------------------------------------------------- 
 current energy:         -84.80029401
    bias energy:           0.00004786
unbiased energy:         -84.80034187
... step 19 ...
      ----------------------------------------------------------- 
     |                   =====================                   |
     |                        A N C O P T                        |
     |                   =====================                   |
     |               Approximate Normal Coordinate               |
     |                Rational Function Optimizer                |
      ----------------------------------------------------------- 
 current energy:         -84.80611341
    bias energy:           0.00005057
unbiased energy:         -84.80616399
... step 20 ...
      ----------------------------------------------------------- 
     |                   =====================                   |
     |                        A N C O P T                        |
     |                   =====================                   |
     |               Approximate Normal Coordinate               |
     |                Rational Function Optimizer                |
      ----------------------------------------------------------- 
 current energy:         -84.80362712
    bias energy:           0.00049216
unbiased energy:         -84.80411928
... step 21 ...
      ----------------------------------------------------------- 
     |                   =====================                   |
     |                        A N C O P T                        |
     |                   =====================                   |
     |               Approximate Normal Coordinate               |
     |                Rational Function Optimizer                |
      ----------------------------------------------------------- 
 current energy:         -84.80053007
    bias energy:           0.00024291
unbiased energy:         -84.80077298
... step 22 ...
      ----------------------------------------------------------- 
     |                   =====================                   |
     |                        A N C O P T                        |
     |                   =====================                   |
     |               Approximate Normal Coordinate               |
     |                Rational Function Optimizer                |
      ----------------------------------------------------------- 
 current energy:         -84.79937484
    bias energy:           0.00014347
unbiased energy:         -84.79951831
... step 23 ...
      ----------------------------------------------------------- 
     |                   =====================                   |
     |                        A N C O P T                        |
     |                   =====================                   |
     |               Approximate Normal Coordinate               |
     |                Rational Function Optimizer                |
      ----------------------------------------------------------- 
 current energy:         -84.79701393
    bias energy:           0.00025648
unbiased energy:         -84.79727041
... step 24 ...
      ----------------------------------------------------------- 
     |                   =====================                   |
     |                        A N C O P T                        |
     |                   =====================                   |
     |               Approximate Normal Coordinate               |
     |                Rational Function Optimizer                |
      ----------------------------------------------------------- 
 current energy:         -84.79419099
    bias energy:           0.00029857
unbiased energy:         -84.79448956
... step 25 ...
      ----------------------------------------------------------- 
     |                   =====================                   |
     |                        A N C O P T                        |
     |                   =====================                   |
     |               Approximate Normal Coordinate               |
     |                Rational Function Optimizer                |
      ----------------------------------------------------------- 
 current energy:         -84.79191127
    bias energy:           0.00014772
unbiased energy:         -84.79205899
... step 26 ...
      ----------------------------------------------------------- 
     |                   =====================                   |
     |                        A N C O P T                        |
     |                   =====================                   |
     |               Approximate Normal Coordinate               |
     |                Rational Function Optimizer                |
      ----------------------------------------------------------- 
 current energy:         -84.79154099
    bias energy:           0.00004116
unbiased energy:         -84.79158216
... step 27 ...
      ----------------------------------------------------------- 
     |                   =====================                   |
     |                        A N C O P T                        |
     |                   =====================                   |
     |               Approximate Normal Coordinate               |
     |                Rational Function Optimizer                |
      ----------------------------------------------------------- 
 current energy:         -84.79269823
    bias energy:           0.00003936
unbiased energy:         -84.79273758
... step 28 ...
      ----------------------------------------------------------- 
     |                   =====================                   |
     |                        A N C O P T                        |
     |                   =====================                   |
     |               Approximate Normal Coordinate               |
     |                Rational Function Optimizer                |
      ----------------------------------------------------------- 
 current energy:         -84.79357626
    bias energy:           0.00008514
unbiased energy:         -84.79366140
... step 29 ...
      ----------------------------------------------------------- 
     |                   =====================                   |
     |                        A N C O P T                        |
     |                   =====================                   |
     |               Approximate Normal Coordinate               |
     |                Rational Function Optimizer                |
      ----------------------------------------------------------- 
 current energy:         -84.79392557
    bias energy:           0.00021654
unbiased energy:         -84.79414211
... step 30 ...
      ----------------------------------------------------------- 
     |                   =====================                   |
     |                        A N C O P T                        |
     |                   =====================                   |
     |               Approximate Normal Coordinate               |
     |                Rational Function Optimizer                |
      ----------------------------------------------------------- 
 current energy:         -84.79364255
    bias energy:           0.00037803
unbiased energy:         -84.79402058
... step 31 ...
      ----------------------------------------------------------- 
     |                   =====================                   |
     |                        A N C O P T                        |
     |                   =====================                   |
     |               Approximate Normal Coordinate               |
     |                Rational Function Optimizer                |
      ----------------------------------------------------------- 
 current energy:         -84.79304809
    bias energy:           0.00031753
unbiased energy:         -84.79336563
... step 32 ...
      ----------------------------------------------------------- 
     |                   =====================                   |
     |                        A N C O P T                        |
     |                   =====================                   |
     |               Approximate Normal Coordinate               |
     |                Rational Function Optimizer                |
      ----------------------------------------------------------- 
 current energy:         -84.79356036
    bias energy:           0.00006845
unbiased energy:         -84.79362881
... step 33 ...
      ----------------------------------------------------------- 
     |                   =====================                   |
     |                        A N C O P T                        |
     |                   =====================                   |
     |               Approximate Normal Coordinate               |
     |                Rational Function Optimizer                |
      ----------------------------------------------------------- 
 current energy:         -84.79575175
    bias energy:           0.00017152
unbiased energy:         -84.79592327
... step 34 ...
      ----------------------------------------------------------- 
     |                   =====================                   |
     |                        A N C O P T                        |
     |                   =====================                   |
     |               Approximate Normal Coordinate               |
     |                Rational Function Optimizer                |
      ----------------------------------------------------------- 
 current energy:         -84.79792428
    bias energy:           0.00010129
unbiased energy:         -84.79802557
... step 35 ...
      ----------------------------------------------------------- 
     |                   =====================                   |
     |                        A N C O P T                        |
     |                   =====================                   |
     |               Approximate Normal Coordinate               |
     |                Rational Function Optimizer                |
      ----------------------------------------------------------- 
 current energy:         -84.79905103
    bias energy:           0.00000441
unbiased energy:         -84.79905544
... step 36 ...
      ----------------------------------------------------------- 
     |                   =====================                   |
     |                        A N C O P T                        |
     |                   =====================                   |
     |               Approximate Normal Coordinate               |
     |                Rational Function Optimizer                |
      ----------------------------------------------------------- 
 current energy:         -84.79851412
    bias energy:           0.00010312
unbiased energy:         -84.79861724
           -------------------------------------------------
          |                Property Printout                |
           -------------------------------------------------

    * Orbital Energies and Occupations

         #    Occupation            Energy/Eh            Energy/eV
      -------------------------------------------------------------
         1        2.0000           -0.7532146             -20.4960
       ...           ...                  ...                  ...
        59        2.0000           -0.4704111             -12.8005
        60        2.0000           -0.4681942             -12.7402
        61        2.0000           -0.4641082             -12.6290
        62        2.0000           -0.4600794             -12.5194
        63        2.0000           -0.4560100             -12.4087
        64        2.0000           -0.4440979             -12.0845
        65        2.0000           -0.4366969             -11.8831
        66        2.0000           -0.4312745             -11.7356
        67        2.0000           -0.4232452             -11.5171
        68        2.0000           -0.4224404             -11.4952
        69        2.0000           -0.4188474             -11.3974
        70        2.0000           -0.4135532             -11.2534
        71        2.0000           -0.4059753             -11.0472 (HOMO)
        72                         -0.0641558              -1.7458 (LUMO)
        73                         -0.0495499              -1.3483
        74                         -0.0217183              -0.5910
        75                         -0.0162895              -0.4433
        76                         -0.0010548              -0.0287
        77                          0.0026338               0.0717
        78                          0.0091045               0.2477
        79                          0.0172423               0.4692
        80                          0.0304752               0.8293
        81                          0.0350633               0.9541
        82                          0.0373675               1.0168
       ...                                ...                  ...
       120                          0.3018601               8.2140
      -------------------------------------------------------------
                  HL-Gap            0.3418195 Eh            9.3014 eV
             Fermi-level           -0.2350656 Eh           -6.3965 eV

     #   Z          covCN         q      C6AA      α(0)
     1   6 C        3.654     0.032    20.326     6.473
     2   8 O        1.703    -0.287    18.771     5.850
     3   6 C        3.656     0.248    17.031     5.924
     4   8 O        1.701    -0.343    19.759     6.001
     5   6 C        3.749     0.092    19.116     6.236
     6   6 C        3.676     0.071    19.610     6.345
     7   8 O        1.656    -0.427    21.373     6.241
     8   6 C        3.738     0.090    19.159     6.246
     9   8 O        1.701    -0.307    19.117     5.903
    10   6 C        3.638     0.235    17.265     5.977
    11   8 O        1.700    -0.354    19.960     6.032
    12   6 C        3.744     0.081    19.293     6.266
    13   6 C        3.674     0.069    19.644     6.351
    14   8 O        1.656    -0.434    21.518     6.262
    15   6 C        3.724     0.076    19.421     6.293
    16   8 O        1.656    -0.437    21.582     6.271
    17   6 C        3.723     0.089    19.205     6.258
    18   8 O        1.656    -0.438    21.593     6.273
    19   6 C        3.724     0.079    19.364     6.284
    20   8 O        1.656    -0.432    21.474     6.256
    21   6 C        3.728     0.088    19.219     6.259
    22   8 O        1.655    -0.449    21.814     6.305
    23   6 C        3.726     0.090    19.192     6.255
    24   8 O        1.657    -0.433    21.497     6.259
    25   1 H        0.924     0.048     2.351     2.398
    26   1 H        0.924     0.042     2.421     2.433
    27   1 H        0.925     0.074     2.045     2.236
    28   1 H        0.922     0.011     2.871     2.650
    29   1 H        0.923     0.039     2.460     2.453
    30   1 H        0.924     0.052     2.289     2.366
    31   1 H        0.925     0.066     2.130     2.282
    32   1 H        0.805     0.304     0.709     1.322
    33   1 H        0.924     0.045     2.388     2.417
    34   1 H        0.923     0.043     2.407     2.426
    35   1 H        0.923     0.053     2.287     2.365
    36   1 H        0.923     0.028     2.620     2.531
    37   1 H        0.924     0.065     2.140     2.288
    38   1 H        0.805     0.316     0.674     1.290
    39   1 H        0.924     0.059     2.216     2.328
    40   1 H        0.805     0.298     0.728     1.340
    41   1 H        0.922     0.036     2.510     2.478
    42   1 H        0.805     0.312     0.686     1.301
    43   1 H        0.924     0.083     1.945     2.181
    44   1 H        0.805     0.300     0.720     1.333
    45   1 H        0.924     0.065     2.143     2.289
    46   1 H        0.805     0.307     0.700     1.314
    47   1 H        0.923     0.036     2.502     2.474
    48   1 H        0.805     0.317     0.673     1.289

 Mol. C6AA /au·bohr⁶  :      19130.205264
 Mol. C8AA /au·bohr⁸  :     408972.478650
 Mol. α(0) /au        :        198.601644


Wiberg/Mayer (AO) data.
largest (>0.10) Wiberg bond orders for each atom

 ---------------------------------------------------------------------------
     #   Z sym  total        # sym  WBO       # sym  WBO       # sym  WBO
 ---------------------------------------------------------------------------
     1   6 C    3.937 --    25 H    0.980    27 H    0.980    26 H    0.977
                             2 O    0.975
     2   8 O    2.111 --     3 C    1.019     1 C    0.975
     3   6 C    3.935 --     2 O    1.019    23 C    0.958     4 O    0.948
                            28 H    0.941
     4   8 O    2.073 --     5 C    0.970     3 C    0.948
     5   6 C    3.944 --     6 C    0.975     4 O    0.970     8 C    0.963
                            29 H    0.956
     6   6 C    3.959 --     7 O    1.015     5 C    0.975    31 H    0.968
                            30 H    0.964
     7   8 O    1.967 --     6 C    1.015    32 H    0.890
     8   6 C    3.944 --    21 C    0.969     5 C    0.963     9 O    0.957
                            33 H    0.955
     9   8 O    2.112 --    10 C    1.005     8 C    0.957
    10   6 C    3.926 --     9 O    1.005    11 O    0.950    19 C    0.948
                            34 H    0.948
    11   8 O    2.071 --    12 C    0.956    10 C    0.950
    12   6 C    3.939 --    13 C    0.969    15 C    0.966    35 H    0.958
                            11 O    0.956
    13   6 C    3.965 --    14 O    1.022    12 C    0.969    37 H    0.968
                            36 H    0.966
    14   8 O    1.968 --    13 C    1.022    38 H    0.876
    15   6 C    3.955 --    16 O    1.002    12 C    0.966    17 C    0.959
                            39 H    0.956
    16   8 O    1.974 --    15 C    1.002    40 H    0.891
    17   6 C    3.961 --    18 O    1.006    15 C    0.959    19 C    0.959
                            41 H    0.954
    18   8 O    1.964 --    17 C    1.006    42 H    0.884
    19   6 C    3.958 --    20 O    1.009    17 C    0.959    43 H    0.955
                            10 C    0.948
    20   8 O    1.980 --    19 C    1.009    44 H    0.884
    21   6 C    3.957 --    22 O    0.994     8 C    0.969    23 C    0.960
                            45 H    0.957
    22   8 O    1.970 --    21 C    0.994    46 H    0.879
    23   6 C    3.965 --    24 O    1.008    21 C    0.960     3 C    0.958
                            47 H    0.954
    24   8 O    1.962 --    23 C    1.008    48 H    0.880
    25   1 H    0.998 --     1 C    0.980
    26   1 H    0.998 --     1 C    0.977
    27   1 H    0.994 --     1 C    0.980
    28   1 H    1.000 --     3 C    0.941
    29   1 H    0.998 --     5 C    0.956
    30   1 H    0.997 --     6 C    0.964
    31   1 H    0.995 --     6 C    0.968
    32   1 H    0.907 --     7 O    0.890
    33   1 H    0.998 --     8 C    0.955
    34   1 H    0.997 --    10 C    0.948
    35   1 H    0.997 --    12 C    0.958
    36   1 H    0.999 --    13 C    0.966
    37   1 H    0.996 --    13 C    0.968
    38   1 H    0.900 --    14 O    0.876
    39   1 H    0.997 --    15 C    0.956
    40   1 H    0.911 --    16 O    0.891
    41   1 H    0.999 --    17 C    0.954
    42   1 H    0.902 --    18 O    0.884
    43   1 H    0.993 --    19 C    0.955
    44   1 H    0.910 --    20 O    0.884
    45   1 H    0.996 --    21 C    0.957
    46   1 H    0.906 --    22 O    0.879
    47   1 H    0.999 --    23 C    0.954
    48   1 H    0.900 --    24 O    0.880
 ---------------------------------------------------------------------------

Topologies differ in total number of bonds
Writing topology from bond orders to xtbtopo.mol

molecular dipole:
                 x           y           z       tot (Debye)
 q only:       -0.469      -0.120       0.760
   full:       -0.727      -0.309       1.133       3.511
molecular quadrupole (traceless):
                xx          xy          yy          xz          yz          zz
 q only:        8.694       7.850     -15.054      -7.951       2.652       6.360
  q+dip:        4.058       8.359     -22.805     -10.319       7.693      18.746
   full:        6.425       8.983     -22.554     -10.699       6.206      16.130

           -------------------------------------------------
          |                Geometry Summary                 |
           -------------------------------------------------

      molecular mass/u    :      356.3235988
   center of mass at/Å    :       -0.0359059      -0.0324443       0.1154167
  moments of inertia/u·Å² :        0.1270724E+04   0.3553142E+04   0.4536954E+04
rotational constants/cm⁻¹ :        0.1326617E-01   0.4744430E-02   0.3715628E-02

 * 43 selected distances

     #   Z          #   Z                                           value/Å
     1   6 C        2   8 O                                       1.4142417
     2   8 O        3   6 C                                       1.3779537
     3   6 C        4   8 O                                       1.4143784
     4   8 O        5   6 C                                       1.4125039
     5   6 C        6   6 C                                       1.5332209
     6   6 C        7   8 O                                       1.4001120
     5   6 C        8   6 C                                       1.5365123 (max)
     8   6 C        9   8 O                                       1.4214382
     9   8 O       10   6 C                                       1.3860597
    10   6 C       11   8 O                                       1.4187309
    11   8 O       12   6 C                                       1.4224354
    13   6 C       14   8 O                                       1.3971159
    15   6 C       16   8 O                                       1.4055115
    17   6 C       18   8 O                                       1.4019275
    19   6 C       20   8 O                                       1.4013458
     8   6 C       21   6 C                                       1.5340312
    21   6 C       22   8 O                                       1.4102759
     3   6 C       23   6 C                                       1.5347732
    23   6 C       24   8 O                                       1.4004059
     1   6 C       25   1 H                                       1.0930577
     1   6 C       26   1 H                                       1.0952689
     1   6 C       27   1 H                                       1.0872708
     3   6 C       28   1 H                                       1.1105096
     5   6 C       29   1 H                                       1.1023776
     6   6 C       30   1 H                                       1.0971141
     6   6 C       31   1 H                                       1.0901450
     7   8 O       32   1 H                                       0.9651769 (min)
     8   6 C       33   1 H                                       1.0954951
    10   6 C       34   1 H                                       1.0983628
    12   6 C       35   1 H                                       1.0987967
    13   6 C       36   1 H                                       1.0989364
    13   6 C       37   1 H                                       1.0919313
    14   8 O       38   1 H                                       0.9682212
    15   6 C       39   1 H                                       1.0966478
    16   8 O       40   1 H                                       0.9654923
    17   6 C       41   1 H                                       1.1057185
    18   8 O       42   1 H                                       0.9661583
    19   6 C       43   1 H                                       1.0907098
    20   8 O       44   1 H                                       0.9676319
    21   6 C       45   1 H                                       1.0959456
    22   8 O       46   1 H                                       0.9669783
    23   6 C       47   1 H                                       1.1029127
    24   8 O       48   1 H                                       0.9671211

 * 4 distinct bonds (by element types)

   Z      Z             #   av. dist./Å        max./Å        min./Å
   1 H    6 C          17     1.0971294     1.1105096     1.0872708
   6 C    6 C           4     1.5346344     1.5365123     1.5332209
   1 H    8 O           7     0.9666829     0.9682212     0.9651769
   6 C    8 O          15     1.4056291     1.4224354     1.3779537
Note: The following floating-point exceptions are signalling: IEEE_UNDERFLOW_FLAG IEEE_DENORMAL
normal termination of xtb


optimized geometry written to: xtbopt.xyz


           -------------------------------------------------
          | TOTAL ENERGY              -84.794181131716 Eh   |
          | GRADIENT NORM               0.000603802857 Eh/α |
          | HOMO-LUMO GAP               9.301381992503 eV   |
           -------------------------------------------------

------------------------------------------------------------------------
 * finished run on 2026/09/22 at 13:24:30.283     
------------------------------------------------------------------------
 total:
 * wall-time:     0 d,  0 h,  3 min, 17.006 sec
 *  cpu-time:     0 d,  0 h,  3 min,  6.550 sec
 * ratio c/w:     0.947 speedup
 SCF:
 * wall-time:     0 d,  0 h,  0 min,  0.267 sec
 *  cpu-time:     0 d,  0 h,  0 min,  0.261 sec
 * ratio c/w:     0.976 speedup
 ANC optimizer:
 * wall-time:     0 d,  0 h,  3 min, 16.680 sec
 *  cpu-time:     0 d,  0 h,  3 min,  6.255 sec
 * ratio c/w:     0.947 speedup

