48
-84.852488362995
C 5.574944 1.221859 -0.363106
O 4.454214 1.231878 0.516948
C 3.408403 0.406649 0.145056
O 2.821064 0.881831 -1.046556
C 1.707466 0.111538 -1.460946
C 1.238195 0.683156 -2.804887
O 2.216525 0.578321 -3.803181
C 0.573128 0.159868 -0.415502
O -0.474823 -0.692177 -0.852186
C -1.782447 -0.233798 -1.136540
O -2.646426 -1.290875 -0.844401
C -2.771426 -1.550521 0.554559
C -3.638614 -2.810331 0.689593
O -3.753940 -3.240359 2.023816
C -3.405404 -0.343436 1.265105
O -3.507167 -0.522337 2.654544
C -2.533649 0.894059 1.016399
O -3.156455 2.075024 1.473899
C -2.323588 1.055907 -0.490946
O -1.528222 2.166983 -0.811903
C 1.150113 -0.386694 0.903508
O 0.192970 -0.341626 1.927989
C 2.390304 0.424566 1.293118
O 2.917633 -0.145626 2.461342
H 5.306502 1.647329 -1.329968
H 5.943577 0.201331 -0.497183
H 6.327373 1.835902 0.123103
H 3.763622 -0.634085 -0.018456
H 2.013139 -0.936956 -1.598630
H 0.933047 1.725517 -2.654690
H 0.382397 0.102926 -3.150670
H 2.991951 1.086648 -3.526253
H 0.232519 1.186426 -0.283412
H -1.861170 -0.107797 -2.230004
H -1.774615 -1.720244 0.984731
H -3.222190 -3.588170 0.043047
H -4.650687 -2.583984 0.346656
H -2.921668 -3.643437 2.310287
H -4.402564 -0.161868 0.827768
H -3.873355 -1.409048 2.825213
H -1.572801 0.750799 1.524885
H -3.404098 1.942727 2.400612
H -3.323992 1.184075 -0.940044
H -1.911758 2.937165 -0.360324
H 1.452779 -1.432669 0.731981
H 0.645899 -0.537660 2.765286
H 2.098028 1.471180 1.462741
H 3.705264 0.350032 2.731085
