48
 energy: -84.859103430989 gnorm: 0.000330082821 xtb: 6.7.1 (edcfbbe)
C            5.53627613279154       -1.26559838819793        0.18639124357080
O            4.87657093678156       -0.14313066419501        0.76569091503955
C            3.49971318378013       -0.25137302661348        0.84663039439464
O            2.94552460653125       -0.25825456569229       -0.45098725468940
C            1.53948061220846       -0.41421675219963       -0.45627647249173
C            1.09564576642096       -0.42027379216412       -1.92581378384202
O            1.30613438576989       -1.65783703097291       -2.54749238057339
C            0.82550815299189        0.69311347900815        0.34083672920949
O           -0.52271203014276        0.28512192325896        0.52509113919850
C           -1.53548665962394        1.20342062164372        0.21920868647278
O           -2.09205696655545        0.96644373210427       -1.04583709695142
C           -2.70143582707602       -0.31624512776068       -1.20431702151575
C           -3.28500531022090       -0.34854030902815       -2.62384561559120
O           -2.30376130263578       -0.19381997184897       -3.61366544111865
C           -3.79639515453374       -0.55738930747872       -0.15581675638496
O           -4.35196047160056       -1.84320986357513       -0.25081380203977
C           -3.23825131547434       -0.29847989036688        1.25090514890688
O           -4.24893880050623       -0.37322945093257        2.22826580903583
C           -2.62958741673416        1.10606125217677        1.29957539982484
O           -2.06952370516422        1.39812136279621        2.54599295799411
C            1.46495437480913        0.96268997382132        1.70993174339614
O            0.99235551642620        2.21123796955252        2.14551487373858
C            2.99764989364591        0.96780171791366        1.63130623671271
O            3.48640490778962        0.97227446551226        2.94627844798294
H            5.26430853330426       -1.36832758307484       -0.86411706764158
H            5.27766472448243       -2.17924846326978        0.72837303378112
H            6.59766582498898       -1.05643531081574        0.28196614358652
H            3.20406572864595       -1.18465742522123        1.37227367393031
H            1.27445314975960       -1.37822674633253        0.00802751628564
H            1.63024132108638        0.38353490457552       -2.44430399952290
H            0.02339246262292       -0.23315158550249       -1.98044147937326
H            2.25684010999933       -1.82086074171259       -2.62067211925594
H            0.86329096503102        1.62990166048497       -0.22959072596026
H           -1.14242850789505        2.22536688068096        0.18933387098912
H           -1.92743862840394       -1.09180611006807       -1.10258271111345
H           -4.04561715848488        0.43729836130684       -2.70323945591950
H           -3.75211542151557       -1.31927462181316       -2.79598715606340
H           -1.91365107140607        0.68631473054822       -3.51906539714068
H           -4.62887078344508        0.13394674702777       -0.33147160229051
H           -3.65065623859225       -2.50959610755284       -0.19506490312482
H           -2.43998999311296       -1.02481425419913        1.47322621063387
H           -4.81906680140287       -1.13086159288963        2.02487491869239
H           -3.41496661713201        1.83759546581980        1.04855116627389
H           -2.71670588570876        1.15336917115484        3.22728655965680
H            1.15179679360929        0.16845532194740        2.40281283720141
H            1.33852910252079        2.38074147654587        3.03465474207007
H            3.32266084376226        1.86573282096343        1.08494812626134
H            4.45548890413588        0.97031073503139        2.92693966646295
