48
 energy: -84.841205243198 gnorm: 0.000169704630 xtb: 6.7.1 (edcfbbe)
C            5.54480236830426        1.45363917895173        0.43154674200276
O            4.38744616521665        1.46106388147357       -0.39818372914673
C            3.19405145557776        1.27927997628634        0.27208437452257
O            3.08287444260326       -0.07353000963449        0.65795079483480
C            1.90181135421508       -0.34420023298587        1.38556165434827
C            1.99835286033746       -1.79637807843862        1.86673572189655
O            3.00324972078742       -1.96732829896623        2.82999093261812
C            0.61999093370144       -0.10109125793366        0.55469348626954
O           -0.43201460866001       -0.13939517425648        1.51819981793225
C           -1.62762531913216       -0.88033324933507        1.45066104075251
O           -2.74239072633319       -0.04519791596881        1.27651628919294
C           -3.01812138320356        0.41610239300026       -0.04197557638860
C           -4.26069590383814        1.31375496303627        0.06905921815020
O           -4.57339697044357        1.93613140478207       -1.15304939968621
C           -3.27143926117339       -0.77042963251580       -0.98202116142412
O           -3.46276608005770       -0.37077680449720       -2.31603846078645
C           -2.05330883559399       -1.69721957511622       -0.95264798032626
O           -2.29035796859907       -2.89848798228898       -1.64821399743108
C           -1.71982375552917       -2.08947271510753        0.49412892518543
O           -0.55134098029130       -2.86134478328843        0.56500615531529
C            0.67609557368471        1.28468519235057       -0.12420334554584
O           -0.27622028410577        1.43275103184544       -1.15268954018487
C            2.06130744219502        1.64775699946804       -0.68858196006169
O            2.14320084393058        3.02624424587005       -0.93094935879723
H            5.68102298088884        0.47483375697135        0.89338754914419
H            5.46180949387280        2.22152753435100        1.20562973891905
H            6.37524634449358        1.67667550284082       -0.23176911595387
H            3.13592081566763        1.92668749531078        1.17121714637971
H            1.84845113141032        0.32063329496610        2.26242151588710
H            2.17149695646217       -2.44093771363145        0.99851994094886
H            1.05832196563690       -2.07944628699073        2.33867132944022
H            3.85368419842160       -1.74073256625344        2.42798654865796
H            0.52102309572925       -0.89531574305024       -0.18869096639535
H           -1.75125855940840       -1.24919679048953        2.47863633773782
H           -2.17423760451694        1.00177264766317       -0.42824967865644
H           -4.09267372223695        2.04041027228477        0.86892030048839
H           -5.12400665018521        0.70081407943403        0.33805634713007
H           -3.94617360417692        2.65422986642484       -1.32078972887316
H           -4.14689972213792       -1.33334470057220       -0.61700538482047
H           -4.10839526934541        0.35867571009544       -2.32908716168075
H           -1.20946014799400       -1.16533603540393       -1.41373923513346
H           -2.66326616169796       -2.68162800896624       -2.51583636084850
H           -2.58060510297847       -2.67501693708790        0.85690226792176
H           -0.68645993689595       -3.64552564555786        0.00856364888793
H            0.40363815483828        2.02622637790638        0.63593098045178
H           -0.00687881902571        0.91505903572056       -1.92742483239329
H            2.24454018802972        1.07888963355847       -1.61469734637590
H            1.40147597508588        3.29381897873359       -1.49765388740223
