48
 energy: -84.799099579041 gnorm: 0.000582955194 xtb: 6.7.1 (edcfbbe)
C            3.54353865326782       -2.78065390503029       -2.05942729519556
O            3.17367467855635       -2.36451955320503       -0.75738713104266
C            2.18297822240128       -1.39851960723600       -0.72964268602010
O            2.68192589182783       -0.17562905766609       -1.24456046536138
C            1.62248999794032        0.72816583054121       -1.53628973043857
C            2.25830298382359        2.08713783197533       -1.85138519095983
O            3.18171858464879        1.98868404749079       -2.90053665866606
C            0.60205202511915        0.78608139140071       -0.37350001671052
O           -0.49599727496130       -0.02705912930505       -0.75509970129908
C           -1.84361803486585        0.37293808419694       -0.70291415587969
O           -2.59356271045625       -0.61361704589205       -0.05417944268792
C           -2.34577918606362       -0.74511559737186        1.34298394166550
C           -3.19361178525653       -1.93476599171750        1.80729464259714
O           -2.74425090399813       -3.13380704141870        1.24498720790960
C           -2.72353603627722        0.54752181803727        2.07714822691496
O           -2.45021144268974        0.49145896639487        3.45546019587396
C           -2.01200714070856        1.75045231443476        1.43446697211622
O           -2.54417789469996        2.96744140832359        1.91136994318144
C           -2.21281975167341        1.73685949423580       -0.08639597970061
O           -1.53495752946554        2.79176575298331       -0.71588152048951
C            1.29283629801128        0.26852958308253        0.91195818134053
O            2.35472768733802        1.10766715155047        1.26733812435062
C            1.75507812786718       -1.18909051682286        0.73382751098658
O            0.71509280945820       -2.03883669585749        1.13025463303856
H            3.95375933207404       -1.94848819004734       -2.63597902251270
H            2.68153694136634       -3.19857363833626       -2.59105692004287
H            4.30302411849998       -3.54667157738314       -1.92425342786803
H            1.30357944241694       -1.70207725743338       -1.33102449803267
H            1.08905057414558        0.36453671570508       -2.42814050426404
H            2.73771464309219        2.48981736648082       -0.94774344795817
H            1.48045084081984        2.77959990785474       -2.17846748233239
H            3.77962801385626        1.25992190828715       -2.69352868350297
H            0.30072436429390        1.82462454224246       -0.22935905991128
H           -2.21591460075672        0.35863984739413       -1.73884347521215
H           -1.28403373579665       -0.98397052428764        1.50009503137579
H           -4.24021072910570       -1.74128061106362        1.53123608348757
H           -3.12229541763317       -2.04224991078690        2.89135779272884
H           -2.63070607509469       -2.97558351322608        0.29966844335789
H           -3.80620389391901        0.70670908498001        1.99940076915629
H           -1.55499807129931        0.15529274435473        3.58870549652544
H           -0.93943705198323        1.70966228047804        1.67764684622064
H           -2.69325298377363        2.86986090723234        2.86040249545101
H           -3.29811006793055        1.83983138750482       -0.25910125853757
H           -1.78366882778695        3.60030026228785       -0.24740653672201
H            0.59615840204041        0.28792025182600        1.75486237011195
H            3.06718866285614        0.96684706319741        0.62790505366778
H            2.64565464603182       -1.34591681747999        1.36437192612001
H            0.96047459762211       -2.95184709287989        0.94285111851806
