48
cell (100, -170) s_182 rnd174 xtb E -84.861059267
C 5.526651 -1.108588 0.520269
O 4.825786 0.114239 0.736543
C 3.451531 -0.017063 0.816122
O 2.939366 -0.385700 -0.445470
C 1.545485 -0.602855 -0.427218
C 1.150175 -1.026079 -1.849800
O 1.401674 -0.024208 -2.795940
C 0.747782 0.635810 0.019400
O -0.560072 0.135211 0.257900
C -1.575434 1.085003 0.474654
O -2.332431 1.292884 -0.685578
C -2.974153 0.123770 -1.189007
C -3.766564 0.567683 -2.427564
O -4.655120 1.613172 -2.134762
C -3.896343 -0.508612 -0.134261
O -4.464264 -1.713751 -0.581988
C -3.132744 -0.727272 1.179303
O -3.991029 -1.159924 2.209428
C -2.473423 0.582344 1.618145
O -1.687942 0.424953 2.767450
C 1.341854 1.281714 1.282240
O 0.828978 2.587594 1.404877
C 2.874671 1.341135 1.228558
O 3.321763 1.732965 2.499356
H 5.233214 -1.555347 -0.430218
H 5.325018 -1.808621 1.335766
H 6.578361 -0.839028 0.503859
H 3.166514 -0.788373 1.562801
H 1.302576 -1.413907 0.276515
H 1.692059 -1.945152 -2.102236
H 0.076907 -1.216278 -1.874571
H 2.348751 0.177170 -2.784858
H 0.727605 1.384192 -0.784685
H -1.154073 2.059969 0.732528
H -2.209346 -0.609288 -1.483655
H -3.058811 0.866925 -3.209895
H -4.376757 -0.265376 -2.780923
H -4.140552 2.351493 -1.777123
H -4.741614 0.165263 0.047097
H -3.763181 -2.338005 -0.823192
H -2.334299 -1.470449 1.016950
H -4.631858 -1.783342 1.833963
H -3.260471 1.333176 1.788819
H -2.226600 -0.026629 3.437137
H 1.040012 0.675871 2.150349
H 1.224811 2.996356 2.190848
H 3.174083 2.073060 0.463381
H 4.290422 1.764712 2.499797
