48
Coordinates from ORCA-job 3_opt_3c E -1337.098649365346
  C           5.71068989660611     -0.89812764851020      0.19651041107180
  O           4.90300753634939      0.24120319477809      0.54118358175977
  C           3.56780871850889     -0.07000963698633      0.75621174334303
  O           2.94433541421900     -0.31088521523852     -0.51018390042945
  C           1.56634401139582     -0.68577608032619     -0.38303878954173
  C           1.09177296886754     -1.04735324921920     -1.77844499268213
  O           1.79937476590472     -2.16949995958875     -2.30413809892547
  C           0.78866904079844      0.49124658232712      0.21116886366636
  O          -0.56780408702560      0.08207445507673      0.40538759781003
  C          -1.53591597688252      1.11034317359926      0.30193958656018
  O          -2.17153958044017      1.09676550162907     -0.96473655898761
  C          -2.91770764291276     -0.10769816008699     -1.23684714123478
  C          -3.44781098277114      0.04351500843401     -2.64895193414280
  O          -2.38888880782181      0.10907912501182     -3.60618349637083
  C          -4.02201078174016     -0.27281640364418     -0.19737345648102
  O          -4.71223866829859     -1.48804463387838     -0.48533787002559
  C          -3.40361716922351     -0.30545537755266      1.19383968968456
  O          -4.48409686522189     -0.39491016151456      2.12873749495267
  C          -2.57016408579694      0.94833838592749      1.41870281143615
  O          -1.97045624440349      0.88057152321770      2.70920472860153
  C           1.40884034469492      0.85130321650189      1.55868217474134
  O           0.71377155057283      1.98186427881886      2.09830029481606
  C           2.89740486008704      1.13171104176938      1.41673332586377
  O           3.39737827041536      1.36039009952802      2.73187851014032
  H           5.41033434625162     -1.31447939963558     -0.77151431818378
  H           5.63102305594077     -1.67193940515394      0.97114401141888
  H           6.74061851188622     -0.54209626317562      0.13780743968795
  H           3.46347104992314     -0.97247236300676      1.39093557904694
  H           1.47356591123701     -1.56232876755269      0.28151465161012
  H           1.19881849934416     -0.16756301838001     -2.43313658244788
  H           0.03537122483124     -1.32602965623092     -1.74098219995691
  H           2.73545469647237     -1.92996432479130     -2.32853902861046
  H           0.83881192663656      1.34891609034176     -0.47756325791633
  H          -1.05901639249721      2.09537786034596      0.36587090941672
  H          -2.24503595085288     -0.97837099454810     -1.19187391186839
  H          -4.08629084861315      0.93972909522900     -2.70214711235135
  H          -4.05209935594622     -0.83092019983937     -2.90456391080539
  H          -1.83553186681022      0.86455490959875     -3.36694172609063
  H          -4.71143784458738      0.58816867233660     -0.25947575337685
  H          -5.30916151735685     -1.65454299305356      0.25712147285662
  H          -2.75794750774176     -1.19450777798816      1.27736226554671
  H          -4.10992142865963     -0.60124608895678      2.99476984896400
  H          -3.23894785278877      1.82357200266131      1.35708401688604
  H          -1.10165053178492      1.31892843881639      2.66253621396327
  H           1.28015124546518     -0.01487694077888      2.23131110292221
  H           1.17591582526076      2.23965000287156      2.90939570985922
  H           3.05269134235043      2.01277732799402      0.77286622158932
  H           4.29714297615807      1.70293373282281      2.65364278221377
