48
Coordinates from ORCA-job 3_opt_3c E -1337.099288405048
  C           5.69394758231650      0.84947637229807      0.39306730567339
  O           4.96847618278537     -0.26563942022549     -0.15335907535509
  C           3.62500670398534      0.00048202683086     -0.38050275224162
  O           2.94193166193124      0.01089398667476      0.87701883816991
  C           1.54606868538274      0.31755279709925      0.74954501769467
  C           0.99893920036231      0.42851678926721      2.16096171446996
  O           1.09622104871700     -0.79652513437806      2.88831937568633
  C           0.87166159531600     -0.77977197330501     -0.08227444706601
  O          -0.49399325881382     -0.43189263661040     -0.33816829280789
  C          -1.49990996638796     -1.30603847283901      0.13844048511099
  O          -2.08103757328202     -0.83550490811126      1.34265234365321
  C          -2.72656013697584      0.44553265733498      1.22246628768526
  C          -3.24143829760195      0.78378987127035      2.61912604359821
  O          -3.61486721281007      2.15529299068195      2.74072765793498
  C          -3.84029294732867      0.36422240417879      0.17825241370153
  O          -4.43082396193295      1.66636481351664      0.08144018403456
  C          -3.27195340291611     -0.09656138377410     -1.15397439134305
  O          -4.36311592663836     -0.22269558181656     -2.06810074572134
  C          -2.56066892820636     -1.43290093461010     -0.95505665667055
  O          -2.01479190272199     -1.92474330593086     -2.17406866467508
  C           1.56637797508603     -0.90373677437244     -1.43008881136118
  O           0.95812847371044     -1.98874426138729     -2.13455777460235
  C           3.06149129519339     -1.11707661159493     -1.25293518811952
  O           3.63802703159259     -1.10843747506287     -2.55636563574175
  H           5.34131881241686      1.09203416191710      1.40163785555257
  H           5.58893903627062      1.72900012487692     -0.25538466820118
  H           6.74184348385142      0.54747002562099      0.43490297180829
  H           3.49010888505014      0.98411343902433     -0.87343960967221
  H           1.41087253227464      1.28973176969597      0.24292560494495
  H           1.53150656458879      1.23980943294804      2.67864671513532
  H          -0.06271154302064      0.68413231765923      2.11601081050868
  H           2.03409360512061     -1.02135911890287      2.94997487906733
  H           0.92941524196914     -1.73517701113738      0.45772655912314
  H          -1.07424647187069     -2.28750524441542      0.38457481077174
  H          -1.99754577375463      1.21223727020900      0.91371541694978
  H          -2.43387396186550      0.60767331056268      3.33828385293533
  H          -4.07961842520965      0.11485951214958      2.87282754165510
  H          -4.23886973749100      2.33697391290221      2.02159828317826
  H          -4.59169965994288     -0.36876831193420      0.51871944095309
  H          -5.18423456496445      1.60236544090684     -0.52045858361556
  H          -2.55379836440311      0.65531774127668     -1.52023483125527
  H          -3.99498228595443     -0.50891627731894     -2.91482955905934
  H          -3.30170527500055     -2.16947419448319     -0.61395250046471
  H          -1.07935164931866     -1.65462002599555     -2.22348587941407
  H           1.41148505809819      0.03685109072736     -1.98708691820361
  H           1.37307914580986     -2.03881752120149     -3.00685268902062
  H           3.24355462224321     -2.07816416478213     -0.74424473762617
  H           4.56253580433991     -1.37597051544028     -2.47271699775842
